 vasp.5.4.1 05Feb16 (build Mar 19 2020 08:54:17) complex

 executed on           IFC91_ompi date 2021.11.11  22:54:57

 INCAR:
 POTCAR:    PAW_PBE Al 04Jan2001
 POTCAR:    PAW_PBE Nb_sv 25May2007
 POTCAR:    PAW_PBE Ta 17Jan2003
 POTCAR:    PAW_PBE Ti 08Apr2002
 POTCAR:   PAW_PBE Zr 08Apr2002
 POTCAR:    PAW_PBE O 08Apr2002

 POTCAR:    PAW_PBE Al 04Jan2001
   VRHFIN =Al: s2p1

   TITEL  = PAW_PBE Al 04Jan2001
   POMASS =   26.981; ZVAL   =    3.000    mass and valenz
   ENMAX  =  240.300; ENMIN  =  180.225 eV

 POTCAR:    PAW_PBE Nb_sv 25May2007
   VRHFIN =Nb: 4p5s4d

   TITEL  = PAW_PBE Nb_sv 25May2007
   POMASS =   92.910; ZVAL   =   13.000    mass and valenz
   ENMAX  =  293.235; ENMIN  =  219.927 eV

 POTCAR:    PAW_PBE Ta 17Jan2003
   VRHFIN =Ta:  6s5d

   TITEL  = PAW_PBE Ta 17Jan2003
   POMASS =  180.948; ZVAL   =    5.000    mass and valenz
   ENMAX  =  223.667; ENMIN  =  167.750 eV

 POTCAR:    PAW_PBE Ti 08Apr2002
   VRHFIN =Ti: d3 s1

   TITEL  = PAW_PBE Ti 08Apr2002
   POMASS =   47.880; ZVAL   =    4.000    mass and valenz
   ENMAX  =  178.330; ENMIN  =  133.747 eV

 POTCAR:   PAW_PBE Zr 08Apr2002
   VRHFIN =Zr: 5s4d5p

   TITEL  = PAW_PBE Zr 08Apr2002
   POMASS =   91.224; ZVAL   =    4.000    mass and valenz
   ENMAX  =  154.632; ENMIN  =  115.974 eV
   QCUT   =   -3.371; QGAM   =    6.742    optimization parameters

   Description
     l     E      TYP  RCUT    TYP  RCUT
     2   .000     23  3.000
     2   .000     23  3.000
     0   .000     23  3.000
     0  2.000     23  3.000
     1  -.400     23  3.000
     3   .000      7   .000

 POTCAR:    PAW_PBE O 08Apr2002
   VRHFIN =O: s2p4

   TITEL  = PAW_PBE O 08Apr2002
   POMASS =   16.000; ZVAL   =    6.000    mass and valenz
   ENMAX  =  400.000; ENMIN  =  300.000 eV

 Optimization of the real space projectors (new method)

 maximal supplied QI-value         = 19.84
 optimisation between [QCUT,QGAM] = [ 12.50, 25.00] = [ 43.76,175.03] Ry
 Optimized for a Real-space Cutoff    1.06 Angstroem

   l    n(q)    QCUT    max X(q) W(low)/X(q) W(high)/X(q)  e(spline)
   0      8    12.501   176.870    0.16E-03    0.12E-03    0.66E-07
   0      8    12.501   105.762    0.15E-03    0.12E-03    0.64E-07
   1      7    12.501    55.370    0.36E-03    0.38E-03    0.67E-07
   1      7    12.501    20.208    0.32E-03    0.35E-03    0.64E-07
 Optimization of the real space projectors (new method)

[...]

   l    n(q)    QCUT    max X(q) W(low)/X(q) W(high)/X(q)  e(spline)
   2     11    12.478    49.363    0.45E-03    0.34E-03    0.89E-06
   2     11    12.478    47.669    0.44E-03    0.33E-03    0.87E-06
   0     12    12.478    26.374    0.17E-03    0.37E-04    0.21E-05
   0     12    12.478    11.549    0.13E-03    0.31E-04    0.17E-05
   1     11    12.478     9.492    0.91E-05    0.64E-04    0.34E-06
 Optimization of the real space projectors (new method)

[...]

   l    n(q)    QCUT    max X(q) W(low)/X(q) W(high)/X(q)  e(spline)
   2     12    12.472     5.149    0.23E-04    0.12E-05    0.19E-06
   2     12    12.472    48.417    0.26E-03    0.15E-03    0.35E-05
   0     13    12.472    27.113    0.15E-04    0.46E-05    0.14E-06
   0     13    12.472    33.957    0.20E-04    0.33E-04    0.12E-05
   1     12    12.472    13.771    0.11E-04    0.23E-05    0.34E-06
 WARNING: PSMAXN for non-local potential too small
          PSMAXN should be >   12.5490833729506       NTYP=           5
 Optimization of the real space projectors (new method)

 maximal supplied QI-value         = 24.76
 optimisation between [QCUT,QGAM] = [ 12.38, 25.00] = [ 42.90,175.06] Ry
 Optimized for a Real-space Cutoff    1.13 Angstroem

   l    n(q)    QCUT    max X(q) W(low)/X(q) W(high)/X(q)  e(spline)
   0      8    12.378    20.381    0.16E-03    0.54E-05    0.27E-06
   0      8    12.378    15.268    0.17E-03    0.61E-05    0.29E-06
   1      8    12.378     5.964    0.38E-03    0.23E-03    0.28E-06
   1      8    12.378     5.382    0.33E-03    0.20E-03    0.25E-06
  PAW_PBE Al 04Jan2001                  :
  PAW_PBE Nb_sv 25May2007               :
  PAW_PBE Ta 17Jan2003                  :
  PAW_PBE Ti 08Apr2002                  :
 PAW_PBE Zr 08Apr2002                   :
  PAW_PBE O 08Apr2002                   :

 POSCAR: Al Nb Ta Ti Zr
  positions in direct lattice
  velocities in cartesian coordinates
 exchange correlation table for  LEXCH =        8
   RHO(1)=    0.500       N(1)  =     2000
   RHO(2)=  100.500       N(2)  =     4000

 ion  position               nearest neighbor table
   1  0.623  0.867  0.376-  34 2.83  25 2.88  24 2.88   9 2.88  13 2.90   4 2.91  61 2.93  15 3.16
                            41 3.35  17 3.40
   2  0.624  0.388  0.548-  14 2.79  26 2.80  23 2.81  31 2.82  33 2.83  10 2.87   7 2.89  62 2.99
                            18 3.12   3 3.19  17 3.22  42 3.32
   3  0.615  0.629  0.627-  32 2.69  14 2.78   8 2.82  26 2.84  23 2.91  33 2.92  27 3.13   2 3.19
                            45 3.20
   4  0.618  0.084  0.450-  31 2.80  24 2.86  34 2.87  13 2.88   1 2.91  25 2.92   7 2.92  10 2.96
                            62 2.96  12 3.16  28 3.16  46 3.24
   5  0.981  0.636  0.550-  30 2.78  27 2.90  42 2.90  56 2.94  63 2.99  52 3.01  47 3.02  54 3.07
                            59 3.21  58 3.22  57 3.28
   6  0.980  0.121  0.378-  29 2.80  28 2.80  53 2.91  41 2.96  51 3.05  55 3.05  60 3.08  57 3.37

   7  0.729  0.343  0.458-  28 2.77  29 2.83  31 2.85  17 2.89   2 2.89  11 2.90   4 2.92  62 3.03
                            63 3.07  42 3.09
   8  0.727  0.876  0.623-  71 2.03  30 2.65  32 2.67  27 2.70  12 2.81   3 2.82  18 2.95  64 3.22
                            62 3.36
   9  0.517  0.608  0.367-  35 2.84  15 2.85  17 2.87   1 2.88  11 2.89  61 2.95  43 3.10
  10  0.514  0.135  0.541-  16 2.82  18 2.84   2 2.87  12 2.92  36 2.92   4 2.96  31 2.96  46 2.98
                            62 3.10  44 3.12
  11  0.618  0.343  0.369-  24 2.75  34 2.83  31 2.87   9 2.89   7 2.90  61 2.96  43 3.27
  12  0.619  0.871  0.537-  13 2.70  32 2.76  25 2.79  23 2.80   8 2.81  33 2.91  10 2.92  62 2.93
                             4 3.16  44 3.30
  13  0.742  0.843  0.462-  12 2.70  17 2.87   4 2.88   1 2.90  30 2.91  28 2.94  63 2.98  23 2.98
                            41 3.05  57 3.27  62 3.40
  14  0.747  0.410  0.627-  27 2.63   3 2.78  42 2.78   2 2.79  18 2.93  64 3.00  58 3.12
  15  0.394  0.847  0.369-  22 2.68  19 2.76  25 2.83  34 2.84   9 2.85  39 2.98   1 3.16  46 3.43

  16  0.390  0.369  0.546-  21 2.65  26 2.77  20 2.82  10 2.82  33 2.84  40 2.91  37 2.92  31 2.97

  17  0.619  0.602  0.458-  33 2.81  25 2.81  23 2.83  31 2.85   9 2.87  13 2.87   7 2.89  61 2.95
                            35 3.03   2 3.22   1 3.40  63 3.44
  18  0.631  0.153  0.625-  72 2.04  71 2.14  26 2.82  10 2.84  62 2.87  32 2.90  14 2.93   8 2.95
                             2 3.12  36 3.13  64 3.21
  19  0.279  0.834  0.451-  15 2.76  35 2.94  46 2.96  39 2.97  25 2.99  44 3.00  60 3.07  51 3.08
                            47 3.12  56 3.19  21 3.28
  20  0.281  0.353  0.631-  69 2.00  70 2.04  67 2.20  16 2.82  36 2.95  48 3.05  26 3.06  52 3.07
                            40 3.09  45 3.16  59 3.23
  21  0.281  0.596  0.537-  16 2.65  35 2.88  44 2.98  45 3.00  52 3.00  37 3.00  33 3.00  47 3.02
                            56 3.12  59 3.25  19 3.28
  22  0.283  0.077  0.361-  15 2.68  46 2.97  43 2.97  34 2.99  51 3.02  55 3.10  60 3.10
  23  0.737  0.632  0.541-  30 2.74  12 2.80   2 2.81  27 2.83  17 2.83   3 2.91  63 2.95  42 2.97
                            13 2.98
  24  0.740  0.115  0.366-  29 2.73  11 2.75  28 2.85   4 2.86   1 2.88  41 3.00
  25  0.496  0.836  0.458-  35 2.78  12 2.79  17 2.81  15 2.83   1 2.88   4 2.92  44 2.94  19 2.99
                            46 2.99  33 3.04
  26  0.502  0.381  0.629-  70 1.93  16 2.77   2 2.80  18 2.82   3 2.84  36 2.96  45 3.03  20 3.06

  27  0.842  0.649  0.628-  68 2.15  14 2.63   8 2.70  58 2.74  23 2.83   5 2.90  30 2.96  54 3.02
                             3 3.13  42 3.43
  28  0.847  0.110  0.455-  62 2.73   7 2.77   6 2.80  24 2.85  57 2.90  13 2.94  53 2.98  29 3.15
                             4 3.16  50 3.18  41 3.36
  29  0.852  0.349  0.376-  24 2.73   6 2.80   7 2.83  53 2.94  61 2.98  49 3.07  28 3.15  63 3.25

  30  0.854  0.862  0.551-   8 2.65  23 2.74   5 2.78  54 2.86  13 2.91  57 2.94  27 2.96  62 2.99
                            50 3.10
  31  0.522  0.339  0.461-   4 2.80   2 2.82  17 2.85   7 2.85  35 2.86  11 2.87  46 2.95  10 2.96
                            16 2.97  43 3.11
  32  0.533  0.885  0.627-  72 1.96  65 2.05   8 2.67   3 2.69  36 2.73  12 2.76  18 2.90  45 3.07
                            44 3.08
  33  0.498  0.621  0.539-  35 2.80  17 2.81   2 2.83  16 2.84  44 2.91  12 2.91   3 2.92  45 2.99
                            21 3.00  25 3.04
  34  0.499  0.102  0.365-  11 2.83   1 2.83  15 2.84   4 2.87  43 2.91  46 2.98  22 2.99
  35  0.400  0.580  0.451-  25 2.78  33 2.80   9 2.84  31 2.86  21 2.88  37 2.88  39 2.93  19 2.94
                            17 3.03  43 3.08
  36  0.407  0.104  0.632-  72 1.99  70 2.04  67 2.06  65 2.16  32 2.73  10 2.92  20 2.95  26 2.96
                            38 2.97  18 3.13  40 3.14  44 3.27
  37  0.255  0.366  0.464-  35 2.88  16 2.92  21 3.00  47 3.02  60 3.04  43 3.05  55 3.08  46 3.08
                            52 3.17  40 3.21  39 3.39
  38  0.240  0.909  0.625-  65 2.03  67 2.11  56 2.77  44 2.93  36 2.97  59 2.99  40 3.03  48 3.11
                            45 3.19  54 3.35
  39  0.252  0.614  0.376-  35 2.93  19 2.97  15 2.98  47 3.07  43 3.07  51 3.07  55 3.08  37 3.39
                            49 3.53
  40  0.253  0.138  0.549-  67 2.39  16 2.91  38 3.03  52 3.06  20 3.09  44 3.09  60 3.12  36 3.14
                            46 3.17  37 3.21  48 3.22  56 3.23  50 3.58
  41  0.865  0.859  0.370-   6 2.96  24 3.00  61 3.05  13 3.05  57 3.06  49 3.12   1 3.35  28 3.36
                            51 3.49  63 3.53
  42  0.865  0.383  0.546-  14 2.78   5 2.90  23 2.97  62 3.03  58 3.09   7 3.09  50 3.11  63 3.15
                            53 3.21   2 3.32  27 3.43  64 3.46  52 3.52
  43  0.381  0.352  0.373-  34 2.91  22 2.97  37 3.05  39 3.07  35 3.08   9 3.10  31 3.11  55 3.26
                            11 3.27  46 3.29
  44  0.380  0.872  0.546-  65 2.35  33 2.91  38 2.93  25 2.94  21 2.98  19 3.00  32 3.08  40 3.09
                            10 3.12  45 3.17  36 3.27  12 3.30  46 3.34  56 3.37
  45  0.383  0.648  0.630-  69 2.13  65 2.23  33 2.99  21 3.00  26 3.03  32 3.07  20 3.16  44 3.17
                            38 3.19   3 3.20  59 3.28
  46  0.384  0.104  0.456-  31 2.95  19 2.96  22 2.97  10 2.98  34 2.98  25 2.99  37 3.08  40 3.17
                             4 3.24  60 3.27  43 3.29  44 3.34  15 3.43
  47  0.117  0.611  0.465-  21 3.02   5 3.02  37 3.02  39 3.07  56 3.11  19 3.12  53 3.14  49 3.15
                            57 3.17  52 3.27  63 3.42  51 3.52  55 3.80
  48  0.102  0.165  0.638-  66 2.08  67 2.19  50 3.04  20 3.05  38 3.11  58 3.15  52 3.15  54 3.17
                            40 3.22  64 3.30
[...]
  Fock        0.00000     0.00000     0.00000     0.00000     0.00000     0.00000
  Total     -34.14160   -21.80645   -16.24321    -4.98521     5.37344    -0.88747
  in kB     -15.01288    -9.58882    -7.14253    -2.19212     2.36283    -0.39024

 VOLUME and BASIS-vectors are now :
  energy-cutoff  :      600.00
  volume of cell :     3643.60
      direct lattice vectors                 reciprocal lattice vectors
    13.771350861  0.000000000  0.000000000     0.072614518  0.000000000  0.000000000
     0.000000000  9.564481735  0.000000000     0.000000000  0.104553496  0.000000000
     0.000000000  0.000000000 27.662570434     0.000000000  0.000000000  0.036149931

  length of vectors
    13.771350861  9.564481735 27.662570434     0.072614518  0.104553496  0.036149931

 FORCES acting on ions
    electron-ion (+dipol)            ewald-force                    non-local-force                 convergence-correction
   -.475E+02 -.339E+02 0.411E+03   0.473E+02 0.336E+02 -.410E+03   0.834E-01 0.822E-01 -.815E+00   -.102E-02 0.118E-02 0.126E-03
   -.239E+02 -.387E+02 -.846E+02   0.241E+02 0.385E+02 0.848E+02   -.182E+00 0.262E+00 -.177E+00   -.322E-03 -.127E-03 -.432E-03
   0.302E+02 0.279E+02 -.350E+03   -.299E+02 -.275E+02 0.349E+03   -.308E+00 -.438E+00 0.977E+00   -.876E-04 0.474E-03 -.576E-03
   0.635E+00 0.460E+01 0.236E+03   -.657E+00 -.443E+01 -.235E+03   -.392E-01 -.267E+00 -.725E+00   0.121E-03 -.632E-03 -.122E-02
   -.581E+02 0.650E+01 -.423E+02   0.578E+02 -.622E+01 0.419E+02   0.314E+00 -.287E+00 0.380E+00   0.137E-02 0.303E-03 -.150E-02
   -.457E+02 0.455E+01 0.354E+03   0.450E+02 -.393E+01 -.351E+03   0.649E+00 -.102E+01 -.227E+01   0.374E-03 0.142E-02 0.345E-03
   -.379E+03 -.882E+01 0.625E+03   0.378E+03 0.957E+01 -.627E+03   0.178E+00 -.296E+00 0.947E+00   0.541E-02 -.815E-03 -.827E-02
   -.299E+03 0.230E+03 -.138E+04   0.298E+03 -.229E+03 0.137E+04   0.959E+00 -.117E+01 0.301E+01   -.633E-03 0.275E-02 -.539E-02
   0.987E+02 -.748E+01 0.176E+04   -.983E+02 0.640E+01 -.175E+04   -.509E+00 0.645E+00 -.431E+01   -.677E-02 0.319E-02 0.127E-02
   0.141E+03 -.135E+02 -.127E+03   -.141E+03 0.137E+02 0.129E+03   0.181E+00 -.258E+00 -.112E+01   -.414E-02 -.180E-02 -.217E-02
   -.559E+02 0.137E+03 0.183E+04   0.567E+02 -.137E+03 -.182E+04   -.520E+00 -.421E+00 -.276E+01   0.342E-02 -.620E-02 -.198E-02
   0.675E+02 0.133E+03 -.169E+03   -.667E+02 -.133E+03 0.169E+03   -.833E+00 0.526E+00 -.963E-01   0.156E-02 0.220E-03 -.307E-02
   -.420E+03 0.143E+01 0.903E+03   0.421E+03 -.254E+01 -.901E+03   -.769E+00 0.132E+01 -.154E+01   -.196E-02 0.181E-02 0.245E-03
   -.143E+03 -.594E+02 -.137E+04   0.144E+03 0.585E+02 0.137E+04   -.887E+00 0.960E+00 0.297E+01   -.326E-02 -.381E-02 -.172E-02
   0.296E+03 -.115E+03 0.167E+04   -.296E+03 0.115E+03 -.166E+04   0.270E+00 -.386E+00 -.419E+01   -.378E-02 0.645E-02 0.785E-03
   0.333E+03 -.159E+03 -.181E+03   -.333E+03 0.159E+03 0.181E+03   0.121E+00 -.574E-01 -.527E+00   -.104E-01 0.462E-02 -.213E-02
   -.155E+02 0.470E+01 0.247E+03   0.150E+02 -.461E+01 -.247E+03   0.546E+00 -.299E+00 0.775E-01   -.203E-03 0.916E-03 -.616E-03
   -.523E+02 -.111E+03 -.511E+03   0.518E+02 0.110E+03 0.510E+03   0.512E+00 0.236E+00 0.151E+01   0.112E-02 -.750E-03 -.697E-03
   0.174E+03 -.473E+01 0.239E+03   -.173E+03 0.460E+01 -.240E+03   -.145E+01 0.620E+00 0.374E+00   0.112E-02 -.515E-03 -.561E-03
   0.174E+03 -.377E+02 -.479E+03   -.173E+03 0.391E+02 0.476E+03   -.118E+01 -.138E+01 0.264E+01   -.627E-04 0.152E-02 -.359E-02
   0.131E+03 -.554E+02 -.331E+02   -.131E+03 0.554E+02 0.329E+02   -.251E+00 -.546E-01 0.181E+00   0.549E-03 -.474E-03 -.148E-02
   0.117E+03 -.556E+02 0.508E+03   -.116E+03 0.557E+02 -.505E+03   -.825E+00 -.252E+00 -.267E+01   0.124E-02 -.446E-03 0.549E-03
   -.997E+02 0.667E+02 -.814E+02   0.996E+02 -.663E+02 0.815E+02   0.885E-01 -.398E+00 -.339E-01   -.481E-03 0.136E-02 -.117E-02
   -.100E+03 0.595E+02 0.561E+03   0.997E+02 -.590E+02 -.558E+03   0.468E+00 -.554E+00 -.277E+01   -.314E-03 0.141E-02 0.852E-04
   0.774E+02 -.117E+02 0.221E+03   -.784E+02 0.111E+02 -.221E+03   0.957E+00 0.805E+00 -.447E+00   -.194E-02 0.378E-04 -.947E-03
   -.506E+02 -.102E+03 -.449E+03   0.505E+02 0.101E+03 0.447E+03   0.882E-01 0.433E+00 0.209E+01   -.133E-02 0.397E-03 -.158E-02
   -.737E+02 0.311E+01 -.406E+03   0.732E+02 -.300E+01 0.403E+03   0.499E+00 -.108E+00 0.284E+01   -.684E-03 0.127E-02 -.893E-03
   -.164E+03 0.622E+01 0.243E+03   0.163E+03 -.602E+01 -.244E+03   0.186E+00 -.371E+00 0.386E+00   0.486E-03 0.898E-03 -.118E-02
   -.150E+03 -.569E+01 0.519E+03   0.149E+03 0.564E+01 -.516E+03   0.720E+00 -.498E-01 -.259E+01   0.318E-03 -.702E-03 0.511E-03
   -.194E+03 -.567E+01 -.840E+02   0.193E+03 0.564E+01 0.839E+02   0.953E+00 0.308E-01 0.110E+00   -.347E-03 0.742E-03 -.101E-02
   0.811E+02 -.852E+00 0.227E+03   -.813E+02 0.123E+01 -.227E+03   0.920E-01 -.598E-01 -.161E+00   -.139E-02 0.164E-03 -.829E-03
   0.424E+02 0.118E+03 -.454E+03   -.421E+02 -.118E+03 0.452E+03   -.309E+00 0.640E-01 0.169E+01   0.132E-02 -.406E-03 -.163E-02
   0.530E+02 0.174E+01 -.902E+02   -.536E+02 -.155E+01 0.897E+02   0.566E+00 -.190E+00 0.442E+00   -.296E-02 0.335E-03 -.129E-02
   0.348E+02 -.140E+01 0.541E+03   -.354E+02 0.133E+01 -.538E+03   0.609E+00 0.695E-01 -.246E+01   -.152E-02 -.105E-02 -.457E-03
   0.128E+03 0.111E+02 0.215E+03   -.128E+03 -.113E+02 -.215E+03   -.888E+00 0.571E+00 -.454E+00   -.263E-02 0.785E-03 0.791E-03
   0.804E+02 0.226E+02 -.419E+03   -.788E+02 -.210E+02 0.418E+03   -.152E+01 -.155E+01 0.159E+01   -.408E-03 0.119E-02 -.165E-02
   0.127E+03 0.614E+01 0.241E+03   -.127E+03 -.595E+01 -.240E+03   0.564E-01 -.328E+00 -.589E+00   0.180E-03 0.702E-03 0.258E-04
   0.144E+03 0.626E+02 -.368E+03   -.145E+03 -.635E+02 0.366E+03   0.147E+01 0.971E+00 0.190E+01   -.126E-03 -.946E-03 -.284E-02
   0.126E+03 0.396E+02 0.468E+03   -.126E+03 -.394E+02 -.465E+03   0.123E+00 -.430E+00 -.270E+01   0.847E-03 0.177E-03 0.113E-02
   0.148E+03 0.372E+02 -.202E+02   -.148E+03 -.366E+02 0.200E+02   -.286E+00 -.627E+00 0.173E+00   0.694E-04 0.105E-02 -.228E-02
   -.986E+02 -.105E+01 0.526E+03   0.989E+02 0.103E+01 -.523E+03   -.480E+00 0.572E-01 -.310E+01   -.706E-04 0.724E-03 0.593E-03
   -.145E+03 0.442E+01 -.581E+02   0.145E+03 -.434E+01 0.587E+02   0.406E+00 -.764E-01 -.547E+00   0.946E-03 -.524E-03 -.207E-02
   0.129E+03 0.282E+02 0.495E+03   -.129E+03 -.285E+02 -.492E+03   -.238E+00 0.338E+00 -.248E+01   -.143E-02 -.102E-02 0.886E-04
   0.139E+03 0.409E+02 -.437E+02   -.138E+03 -.407E+02 0.430E+02   -.632E+00 -.151E+00 0.697E+00   -.117E-02 -.137E-02 -.263E-02
   0.159E+02 -.394E+01 -.418E+03   -.167E+02 0.344E+01 0.415E+03   0.787E+00 0.496E+00 0.303E+01   -.115E-02 -.116E-02 -.249E-02
   0.125E+03 -.612E+01 0.260E+03   -.125E+03 0.583E+01 -.261E+03   0.454E+00 0.297E+00 -.132E+00   -.162E-02 -.833E-03 -.144E-02
   0.365E+02 0.354E+01 0.197E+03   -.362E+02 -.345E+01 -.198E+03   -.119E+00 -.194E+00 0.765E-01   0.145E-02 -.483E-03 0.173E-03
   0.296E+02 0.291E+02 -.373E+03   -.310E+02 -.283E+02 0.371E+03   0.141E+01 -.755E+00 0.230E+01   0.561E-03 0.759E-03 -.168E-02
   -.408E+02 0.150E-01 0.480E+03   0.410E+02 0.382E+00 -.476E+03   -.596E-01 -.271E+00 -.277E+01   0.660E-03 -.179E-02 0.687E-03
   -.613E+02 -.319E+01 -.506E+02   0.612E+02 0.274E+01 0.510E+02   0.909E-01 0.442E+00 -.337E+00   0.105E-02 -.184E-03 -.185E-02
   0.519E+02 -.286E+01 0.461E+03   -.519E+02 0.220E+01 -.457E+03   0.312E-01 0.211E+00 -.307E+01   0.172E-02 0.594E-03 0.680E-03
   0.576E+02 -.522E+01 -.754E+02   -.572E+02 0.494E+01 0.761E+02   -.403E+00 0.275E+00 -.726E+00   0.201E-02 0.351E-03 -.184E-02
   -.699E+02 -.348E+01 0.228E+03   0.699E+02 0.367E+01 -.228E+03   0.127E+00 0.253E+00 0.273E+00   0.681E-03 -.863E-04 -.133E-02
   -.621E+02 -.430E+02 -.352E+03   0.629E+02 0.423E+02 0.350E+03   -.797E+00 0.706E+00 0.237E+01   0.198E-03 0.220E-03 -.192E-02
   0.408E+02 0.871E+00 0.475E+03   -.401E+02 -.736E+00 -.471E+03   -.859E+00 -.301E+00 -.330E+01   0.310E-03 -.427E-03 0.919E-03
   0.397E+02 0.413E+00 -.419E+02   -.393E+02 -.340E+00 0.423E+02   -.446E+00 -.729E-01 -.406E+00   0.101E-02 -.723E-03 -.216E-02
   -.944E+02 0.155E+00 0.203E+03   0.941E+02 -.328E+00 -.203E+03   0.500E+00 0.268E+00 0.157E+00   0.935E-03 0.296E-03 0.230E-03
   -.590E+02 -.583E+01 -.393E+03   0.580E+02 0.478E+01 0.391E+03   0.966E+00 0.105E+01 0.213E+01   0.118E-02 -.373E-03 -.853E-03
   0.347E+02 -.318E+02 -.352E+03   -.337E+02 0.319E+02 0.350E+03   -.978E+00 -.100E+00 0.230E+01   0.133E-02 -.874E-03 -.233E-02
   0.529E+02 -.626E+01 0.235E+03   -.522E+02 0.618E+01 -.235E+03   -.725E+00 0.440E+00 -.125E+00   0.788E-03 0.580E-03 -.510E-03
   -.141E+03 -.427E+02 0.557E+03   0.140E+03 0.420E+02 -.553E+03   0.858E+00 0.561E-01 -.326E+01   0.539E-03 -.121E-02 0.334E-03
   -.149E+03 -.440E+02 -.549E+02   0.148E+03 0.437E+02 0.554E+02   0.479E+00 0.343E+00 -.550E+00   -.262E-04 -.995E-03 -.822E-03
   -.156E+03 0.548E+01 0.229E+03   0.155E+03 -.551E+01 -.229E+03   0.656E+00 0.310E+00 0.438E-01   0.763E-03 -.895E-03 -.105E-02
   -.117E+03 0.284E+01 -.395E+03   0.116E+03 -.241E+01 0.394E+03   0.308E+00 -.437E+00 0.166E+01   -.655E-03 -.669E-03 -.875E-03
   0.135E+03 0.111E+03 -.660E+03   -.135E+03 -.111E+03 0.667E+03   0.132E+00 0.364E+00 -.649E+01   -.938E-03 -.352E-02 -.407E-02
   -.600E+02 0.182E+02 -.806E+03   0.600E+02 -.198E+02 0.821E+03   0.891E-02 0.156E+01 -.148E+02   0.994E-03 -.164E-04 -.279E-03
   0.192E+03 0.471E+02 -.643E+03   -.193E+03 -.495E+02 0.650E+03   0.902E+00 0.244E+01 -.697E+01   -.121E-02 0.457E-02 -.325E-02
   -.741E+02 -.281E+02 -.727E+03   0.739E+02 0.303E+02 0.736E+03   0.256E+00 -.226E+01 -.866E+01   0.266E-02 0.163E-03 -.981E-03
   0.902E+02 -.755E+02 -.814E+03   -.911E+02 0.794E+02 0.831E+03   0.822E+00 -.387E+01 -.166E+02   0.732E-03 -.116E-02 -.403E-02
   0.310E+02 -.636E+02 -.928E+03   -.270E+02 0.626E+02 0.948E+03   -.400E+01 0.947E+00 -.192E+02   -.304E-02 0.205E-02 -.749E-03
   -.136E+03 -.924E+02 -.969E+03   0.134E+03 0.917E+02 0.987E+03   0.119E+01 0.652E+00 -.183E+02   -.196E-02 -.215E-02 -.338E-02
   0.280E+02 0.110E+02 -.967E+03   -.284E+02 -.103E+02 0.988E+03   0.433E+00 -.778E+00 -.204E+02   0.336E-02 0.206E-02 0.648E-03
   -.107E+01 0.143E+01 0.126E+03   0.483E-12 0.178E-14 -.909E-12   0.103E+01 -.141E+01 -.126E+03   -.167E-01 0.861E-02 -.855E-01

 POSITION                                       TOTAL-FORCE (eV/Angst)
      8.57631      8.29685     10.39845        -0.072635     -0.148120      0.004381
      8.59427      3.71537     15.14662         0.000837      0.002602     -0.001000
      8.47231      6.01950     17.34418         0.002549     -0.003739      0.005132
      8.51616      0.79995     12.43874        -0.060619     -0.097248     -0.181083
     13.50600      6.08535     15.21010        -0.001558     -0.002646      0.002286
     13.49094      1.15316     10.44749        -0.041144     -0.395272     -0.043539
     10.03344      3.28428     12.67411        -0.071436      0.450466     -0.583632
     10.01118      8.38261     17.23884         0.003820     -0.003635      0.002914
      7.12524      5.81577     10.15765        -0.146798     -0.432361      0.940602
      7.07392      1.29204     14.97286         0.002297     -0.003815     -0.000492
      8.51222      3.28036     10.20450         0.303373      0.011795      0.779843
      8.52411      8.32951     14.86049         0.002201     -0.001975     -0.001360
     10.22263      8.06723     12.77991         0.183762      0.211416     -0.426970
     10.28991      3.92036     17.35072         0.004218     -0.003346      0.001167
      5.42664      8.10481     10.20639         0.284769      0.040726      0.925648
      5.37019      3.53395     15.09055         0.002001     -0.005890      0.004187
      8.52843      5.75423     12.65640         0.044977     -0.206953     -0.128340
      8.69423      1.45874     17.30049         0.001237     -0.004643      0.002503
      3.84829      7.97317     12.47259        -0.483189      0.483572     -0.617489
      3.86363      3.37535     17.46321        -0.002847      0.000543      0.001323
      3.87002      5.70063     14.84101        -0.002157      0.000125      0.000337
      3.90063      0.73891     10.00000         0.490500     -0.192612      0.364656
     10.14612      6.04628     14.96363         0.001820     -0.002764      0.001596
     10.19112      1.10470     10.13736        -0.210108     -0.013377      0.335861
      6.82945      7.99424     12.66670        -0.044751      0.229448     -0.418505
      6.91117      3.64712     17.38789        -0.000511      0.001461      0.000439
     11.59676      6.20717     17.38491        -0.004657      0.000617      0.003184
     11.66772      1.05372     12.57547        -0.174215     -0.168340     -0.679981
     11.73919      3.33868     10.41199        -0.276563     -0.106160      0.558523
     11.75476      8.24623     15.24249         0.002275     -0.000372     -0.001847
      7.18522      3.24644     12.75390        -0.120839      0.322293     -0.447750
      7.34358      8.46261     17.34996         0.002754     -0.000359     -0.001404
      6.86351      5.94070     14.91022         0.003562      0.002000      0.000073
      6.87795      0.97560     10.08695        -0.054381     -0.005345      0.176721
      5.51084      5.55012     12.48419        -0.132737      0.336338     -0.357121
      5.60828      0.99543     17.48270         0.001108      0.000953      0.001269
      3.51249      3.50019     12.83519        -0.015268     -0.140502     -0.190101
      3.29838      8.69758     17.27695        -0.000877     -0.004166      0.000276
      3.46798      5.87237     10.40868         0.049530     -0.237412     -0.058404
      3.48426      1.31959     15.19428        -0.000107      0.002005     -0.001132
     11.91771      8.21633     10.24534        -0.202281      0.034324      0.643456
     11.91153      3.66022     15.10212        -0.000851      0.000820     -0.002513
      5.24135      3.36543     10.32679         0.143364      0.090977      0.167608
      5.22991      8.33962     15.10665         0.000624      0.000919     -0.003187
      5.27831      6.19665     17.43735         0.000291     -0.003794      0.004449
      5.28930      0.99064     12.60849         0.180137      0.005001     -0.351394
      1.60538      5.84491     12.85122         0.148684     -0.109175     -0.573054
      1.40210      1.57784     17.63731         0.000573     -0.000171     -0.000084
     13.72038      5.67134     10.18293         0.176595      0.123852      0.659351
     13.68096      1.10076     15.03320        -0.001390     -0.001323     -0.001058
      1.63456      8.33987     10.36453         0.032727     -0.448991      0.164768
      1.64762      3.76408     15.37948         0.001042     -0.000963      0.000741
     13.76831      3.16119     12.53308         0.163568      0.441154     -0.226651
     13.74258      8.33312     17.29443        -0.004140      0.000447     -0.001758
      1.99440      3.17314     10.17666        -0.117387     -0.165793      0.643463
      1.87289      8.09582     14.97460        -0.002036     -0.001390     -0.002725
     13.48051      8.37930     12.86886         0.171286      0.095453     -0.301801
     13.37105      4.15253     17.77880         0.002869      0.001405      0.000748
      2.00281      6.01372     17.48165         0.003598     -0.001002      0.003255
      2.02729      0.87737     12.46815         0.003692      0.363209     -0.410143
     10.07171      5.79402     10.14663         0.130269     -0.609579      0.170337
     10.17380      1.19062     14.86153        -0.000273      0.002494     -0.000920
     11.97051      5.66181     12.67660        -0.315050      0.284272     -0.558243
     11.87583      1.40202     17.72103        -0.001541     -0.003908      0.001966
      5.29859      8.42191     17.45499         0.000659     -0.000239      0.000936
     13.53940      2.28584     18.71421        -0.001166      0.000153      0.000487
      3.55732      1.20258     17.57965         0.001798     -0.003537      0.001425
     13.61230      6.30283     18.13114         0.002555     -0.003017      0.002818
      3.70605      5.13023     18.40184         0.002155      0.001982      0.000467
      5.54766      2.79038     18.45595         0.005908     -0.007374      0.001381
     10.19496      0.44384     18.43949         0.001684     -0.001012     -0.001636
      7.28433      0.53040     18.44193         0.001843     -0.000499     -0.005252
    total drift:                               -0.061893      0.025013      0.036727

  FREE ENERGIE OF THE ION-ELECTRON SYSTEM (eV)
  free  energy   TOTEN  =      -588.17660638 eV

  energy  without entropy=     -588.17673812  energy(sigma->0) =     -588.17663931