 vasp.5.4.1 05Feb16 (build Mar 19 2020 08:54:17) complex

 executed on           IFC91_ompi date 2021.11.11  21:14:35

 INCAR:
 POTCAR:    PAW_PBE Al 04Jan2001
 POTCAR:    PAW_PBE Nb_sv 25May2007
 POTCAR:    PAW_PBE Ta 17Jan2003
 POTCAR:    PAW_PBE Ti 08Apr2002
 POTCAR:   PAW_PBE Zr 08Apr2002
 POTCAR:    PAW_PBE O 08Apr2002

 POTCAR:    PAW_PBE Al 04Jan2001
   VRHFIN =Al: s2p1

   TITEL  = PAW_PBE Al 04Jan2001
   POMASS =   26.981; ZVAL   =    3.000    mass and valenz
   ENMAX  =  240.300; ENMIN  =  180.225 eV

 POTCAR:    PAW_PBE Nb_sv 25May2007
   VRHFIN =Nb: 4p5s4d

   TITEL  = PAW_PBE Nb_sv 25May2007
   POMASS =   92.910; ZVAL   =   13.000    mass and valenz
   ENMAX  =  293.235; ENMIN  =  219.927 eV

 POTCAR:    PAW_PBE Ta 17Jan2003
   VRHFIN =Ta:  6s5d

   TITEL  = PAW_PBE Ta 17Jan2003
   POMASS =  180.948; ZVAL   =    5.000    mass and valenz
   ENMAX  =  223.667; ENMIN  =  167.750 eV

 POTCAR:    PAW_PBE Ti 08Apr2002
   VRHFIN =Ti: d3 s1

   TITEL  = PAW_PBE Ti 08Apr2002
   POMASS =   47.880; ZVAL   =    4.000    mass and valenz
   ENMAX  =  178.330; ENMIN  =  133.747 eV

 POTCAR:   PAW_PBE Zr 08Apr2002
   VRHFIN =Zr: 5s4d5p

   TITEL  = PAW_PBE Zr 08Apr2002
   POMASS =   91.224; ZVAL   =    4.000    mass and valenz
   ENMAX  =  154.632; ENMIN  =  115.974 eV
   QCUT   =   -3.371; QGAM   =    6.742    optimization parameters

   Description
     l     E      TYP  RCUT    TYP  RCUT
     2   .000     23  3.000
     2   .000     23  3.000
     0   .000     23  3.000
     0  2.000     23  3.000
     1  -.400     23  3.000
     3   .000      7   .000

 POTCAR:    PAW_PBE O 08Apr2002
   VRHFIN =O: s2p4

   TITEL  = PAW_PBE O 08Apr2002
   POMASS =   16.000; ZVAL   =    6.000    mass and valenz
   ENMAX  =  400.000; ENMIN  =  300.000 eV

 Optimization of the real space projectors (new method)

 maximal supplied QI-value         = 19.84
 optimisation between [QCUT,QGAM] = [ 12.50, 25.00] = [ 43.76,175.03] Ry
 Optimized for a Real-space Cutoff    1.06 Angstroem

   l    n(q)    QCUT    max X(q) W(low)/X(q) W(high)/X(q)  e(spline)
   0      8    12.501   176.870    0.16E-03    0.12E-03    0.66E-07
   0      8    12.501   105.762    0.15E-03    0.12E-03    0.64E-07
   1      7    12.501    55.370    0.36E-03    0.38E-03    0.67E-07
   1      7    12.501    20.208    0.32E-03    0.35E-03    0.64E-07
 Optimization of the real space projectors (new method)

[...]

   l    n(q)    QCUT    max X(q) W(low)/X(q) W(high)/X(q)  e(spline)
   2     11    12.478    49.363    0.45E-03    0.34E-03    0.89E-06
   2     11    12.478    47.669    0.44E-03    0.33E-03    0.87E-06
   0     12    12.478    26.374    0.17E-03    0.37E-04    0.21E-05
   0     12    12.478    11.549    0.13E-03    0.31E-04    0.17E-05
   1     11    12.478     9.492    0.91E-05    0.64E-04    0.34E-06
 Optimization of the real space projectors (new method)

[...]

   l    n(q)    QCUT    max X(q) W(low)/X(q) W(high)/X(q)  e(spline)
   2     12    12.472     5.149    0.23E-04    0.12E-05    0.19E-06
   2     12    12.472    48.417    0.26E-03    0.15E-03    0.35E-05
   0     13    12.472    27.113    0.15E-04    0.46E-05    0.14E-06
   0     13    12.472    33.957    0.20E-04    0.33E-04    0.12E-05
   1     12    12.472    13.771    0.11E-04    0.23E-05    0.34E-06
 WARNING: PSMAXN for non-local potential too small
          PSMAXN should be >   12.5490833729506       NTYP=           5
 Optimization of the real space projectors (new method)

 maximal supplied QI-value         = 24.76
 optimisation between [QCUT,QGAM] = [ 12.38, 25.00] = [ 42.90,175.06] Ry
 Optimized for a Real-space Cutoff    1.13 Angstroem

   l    n(q)    QCUT    max X(q) W(low)/X(q) W(high)/X(q)  e(spline)
   0      8    12.378    20.381    0.16E-03    0.54E-05    0.27E-06
   0      8    12.378    15.268    0.17E-03    0.61E-05    0.29E-06
   1      8    12.378     5.964    0.38E-03    0.23E-03    0.28E-06
   1      8    12.378     5.382    0.33E-03    0.20E-03    0.25E-06
  PAW_PBE Al 04Jan2001                  :
  PAW_PBE Nb_sv 25May2007               :
  PAW_PBE Ta 17Jan2003                  :
  PAW_PBE Ti 08Apr2002                  :
 PAW_PBE Zr 08Apr2002                   :
  PAW_PBE O 08Apr2002                   :

 POSCAR: Al Nb Ta Ti Zr
  positions in direct lattice
  velocities in cartesian coordinates
 exchange correlation table for  LEXCH =        8
   RHO(1)=    0.500       N(1)  =     2000
   RHO(2)=  100.500       N(2)  =     4000

 ion  position               nearest neighbor table
   1  0.623  0.867  0.376-  34 2.83  25 2.88  24 2.88   9 2.88  13 2.90   4 2.91  61 2.93  15 3.16
                            41 3.35  17 3.40
   2  0.622  0.393  0.546-  31 2.78  23 2.79  26 2.79  33 2.80  14 2.81   7 2.89  10 2.92  62 2.98
                            18 3.15  17 3.17   3 3.18  16 3.19  42 3.35
   3  0.617  0.633  0.626-  65 1.91  14 2.81  26 2.85  23 2.88  32 2.88  33 2.90   8 2.90  27 3.02
                             2 3.18  45 3.19
   4  0.618  0.084  0.450-  31 2.80  24 2.86  34 2.87  13 2.88   1 2.91  25 2.92   7 2.92  10 2.93
                            62 2.97  12 3.16  28 3.16  46 3.24
   5  0.977  0.638  0.554-  27 2.74  30 2.80  42 2.92  56 2.95  59 3.01  52 3.02  54 3.06  63 3.07
                            58 3.13  47 3.14  57 3.35
   6  0.980  0.121  0.378-  29 2.80  28 2.80  53 2.91  41 2.96  51 3.05  55 3.05  60 3.08  57 3.37

   7  0.729  0.343  0.458-  28 2.77  29 2.83  31 2.85   2 2.89  17 2.89  11 2.90   4 2.92  62 3.03
                            63 3.07  42 3.07
   8  0.720  0.897  0.622-  30 2.66  12 2.71  32 2.75  18 2.76  27 2.89   3 2.90  64 3.03  62 3.19

   9  0.517  0.608  0.367-  35 2.84  15 2.85  17 2.87   1 2.88  11 2.89  61 2.95  43 3.10
  10  0.513  0.132  0.540-  18 2.70  36 2.78  16 2.84  12 2.86   2 2.92   4 2.93  46 2.94  31 2.95
                            62 3.05  44 3.14
  11  0.618  0.343  0.369-  24 2.75  34 2.83  31 2.87   9 2.89   7 2.90  61 2.96  43 3.27
  12  0.618  0.874  0.538-   8 2.71  13 2.73  32 2.74  25 2.81  23 2.82  10 2.86  33 2.89  62 2.91
                             4 3.16  44 3.35
  13  0.742  0.843  0.462-  12 2.73  17 2.87   4 2.88   1 2.90  30 2.93  28 2.94  23 2.95  63 2.98
                            41 3.05  57 3.27  62 3.45
  14  0.738  0.396  0.630-  65 2.04  27 2.75   3 2.81   2 2.81  18 2.90  42 2.95  64 2.96  58 3.17

  15  0.394  0.847  0.369-  22 2.68  19 2.76  25 2.83  34 2.84   9 2.85  39 2.98   1 3.16  46 3.43

  16  0.391  0.371  0.541-  21 2.65  20 2.66  26 2.83  10 2.84  37 2.84  33 2.85  31 2.87  40 3.06
                             2 3.19
  17  0.619  0.602  0.458-  33 2.81  25 2.81  23 2.81  31 2.85   9 2.87  13 2.87   7 2.89  61 2.95
                            35 3.03   2 3.17   1 3.40  63 3.44
  18  0.619  0.146  0.622-  10 2.70  32 2.73   8 2.76  26 2.81  62 2.81  14 2.90  36 3.11   2 3.15
                            64 3.31
  19  0.279  0.834  0.451-  15 2.76  35 2.94  46 2.96  39 2.97  25 2.99  44 3.02  60 3.07  51 3.08
                            47 3.12  56 3.20  21 3.34
  20  0.281  0.388  0.620-  16 2.66  45 2.84  36 2.85  21 2.98  59 2.98  52 2.99  48 3.04  26 3.04
                            40 3.18
  21  0.278  0.595  0.539-  16 2.65  45 2.90  59 2.94  35 2.96  52 2.97  44 2.97  20 2.98  47 3.03
                            37 3.03  33 3.06  56 3.11  19 3.34
  22  0.283  0.077  0.361-  15 2.68  46 2.97  43 2.97  34 2.99  51 3.02  55 3.10  60 3.10
  23  0.736  0.634  0.540-  27 2.69  30 2.77   2 2.79  17 2.81  12 2.82   3 2.88  63 2.95  13 2.95
                            42 3.02
  24  0.740  0.115  0.366-  29 2.73  11 2.75  28 2.85   4 2.86   1 2.88  41 3.00
  25  0.496  0.836  0.458-  35 2.78  12 2.81  17 2.81  15 2.83   1 2.88   4 2.92  19 2.99  46 2.99
                            44 3.02  33 3.02
  26  0.501  0.386  0.627-  65 1.97   2 2.79  36 2.80  18 2.81  16 2.83   3 2.85  45 2.94  20 3.04

  27  0.836  0.645  0.624-  23 2.69   5 2.74  14 2.75  58 2.78   8 2.89  30 2.91   3 3.02  54 3.18
                            42 3.38
  28  0.847  0.110  0.455-   7 2.77  62 2.80   6 2.80  24 2.85  57 2.90  13 2.94  53 2.98  29 3.15
                             4 3.16  50 3.27  41 3.36
  29  0.852  0.349  0.376-  24 2.73   6 2.80   7 2.83  53 2.94  61 2.98  49 3.07  28 3.15  63 3.25

  30  0.852  0.868  0.552-   8 2.66  23 2.77   5 2.80  54 2.88  27 2.91  13 2.93  57 2.98  62 2.99
                            50 3.06  64 3.42
  31  0.522  0.339  0.461-   2 2.78   4 2.80  17 2.85   7 2.85  35 2.86  16 2.87  11 2.87  46 2.95
                            10 2.95  43 3.11
  32  0.520  0.899  0.624-  18 2.73  12 2.74   8 2.75  36 2.88   3 2.88  44 2.89  45 3.07
  33  0.499  0.625  0.539-   2 2.80  17 2.81  35 2.82  16 2.85  12 2.89   3 2.90  45 2.91  44 2.92
                            25 3.02  21 3.06
  34  0.499  0.102  0.365-  11 2.83   1 2.83  15 2.84   4 2.87  43 2.91  46 2.98  22 2.99
  35  0.400  0.580  0.451-  25 2.78  33 2.82   9 2.84  31 2.86  37 2.88  39 2.93  19 2.94  21 2.96
                            17 3.03  43 3.08
  36  0.393  0.139  0.621-  10 2.78  26 2.80  20 2.85  40 2.85  32 2.88  38 3.03  18 3.11  44 3.26

  37  0.255  0.366  0.464-  16 2.84  35 2.88  47 3.02  21 3.03  60 3.04  43 3.05  52 3.06  55 3.08
                            46 3.08  40 3.25  39 3.39
  38  0.237  0.915  0.625-  56 2.82  44 2.89  59 2.96  40 2.96  36 3.03  48 3.09  54 3.28  45 3.31

  39  0.252  0.614  0.376-  35 2.93  19 2.97  15 2.98  47 3.07  43 3.07  51 3.07  55 3.08  37 3.39
                            49 3.53
  40  0.245  0.132  0.549-  36 2.85  38 2.96  48 3.02  16 3.06  60 3.06  52 3.06  44 3.08  56 3.16
                            20 3.18  46 3.23  37 3.25  50 3.45
  41  0.865  0.859  0.370-   6 2.96  24 3.00  61 3.05  13 3.05  57 3.06  49 3.12   1 3.35  28 3.36
                            51 3.49  63 3.53
  42  0.865  0.380  0.545-   5 2.92  14 2.95  62 3.01  23 3.02  58 3.02   7 3.07  50 3.12  63 3.14
                            53 3.18  64 3.34   2 3.35  27 3.38  52 3.45
  43  0.381  0.352  0.373-  34 2.91  22 2.97  37 3.05  39 3.07  35 3.08   9 3.10  31 3.11  55 3.26
                            11 3.27  46 3.29
  44  0.375  0.871  0.548-  38 2.89  32 2.89  33 2.92  21 2.97  25 3.02  19 3.02  40 3.08  45 3.09
                            10 3.14  36 3.26  56 3.35  12 3.35  46 3.39
  45  0.385  0.644  0.628-  20 2.84  21 2.90  33 2.91  26 2.94  32 3.07  44 3.09   3 3.19  59 3.28
                            38 3.31
  46  0.384  0.104  0.456-  10 2.94  31 2.95  19 2.96  22 2.97  34 2.98  25 2.99  37 3.08  40 3.23
                             4 3.24  60 3.27  43 3.29  44 3.39  15 3.43
  47  0.117  0.611  0.465-  37 3.02  21 3.03  39 3.07  56 3.08  19 3.12   5 3.14  52 3.14  53 3.14
                            49 3.15  57 3.17  63 3.42  51 3.52  55 3.80
  48  0.114  0.184  0.635-  50 3.01  40 3.02  20 3.04  52 3.09  38 3.09  58 3.10  54 3.32  64 3.55

  49  0.996  0.593  0.368-  63 3.05  29 3.07  41 3.12  47 3.15  51 3.16  55 3.23  53 3.44  39 3.53
                            61 3.65  57 3.82
  50  0.994  0.112  0.547-  48 3.01  64 3.03  30 3.06  54 3.11  42 3.12  52 3.16  56 3.20  57 3.21
                            28 3.27  53 3.34  60 3.40  40 3.45  62 3.59
[...]

  FORCE on cell =-STRESS in cart. coord.  units (eV):
  Direction    XX          YY          ZZ          XY          YZ          ZX
  Alpha Z   518.63607   518.63607   518.63607
  Ewald   76979.55004 82826.26110-88117.05788  -862.41473   123.84795   647.04136
  Hartree 81438.21948 87077.11044-77854.58412  -666.78467    84.53208   649.50970
  E(xc)   -1470.20134 -1472.97074 -1462.16553    -0.80048    -0.34167    -0.66571
  Local  ************************162333.04474  1527.46219  -206.54937 -1299.00085
  n-local   -42.67498   -49.89858   -76.70972     8.12993    -1.16598     0.32935
  augment   443.24120   444.24971   439.15295    -0.93728     0.58342     0.16316
  Kinetic  4195.34340  4189.49128  4203.66058    -6.41252     4.87009     1.31025
  Fock        0.00000     0.00000     0.00000     0.00000     0.00000     0.00000
  Total     -35.30922   -31.02932   -16.02292    -1.75757     5.77653    -1.31273
  in kB     -15.52631   -13.64433    -7.04566    -0.77285     2.54008    -0.57724

 VOLUME and BASIS-vectors are now :
  energy-cutoff  :      600.00
  volume of cell :     3643.60
      direct lattice vectors                 reciprocal lattice vectors
    13.771350861  0.000000000  0.000000000     0.072614518  0.000000000  0.000000000
     0.000000000  9.564481735  0.000000000     0.000000000  0.104553496  0.000000000
     0.000000000  0.000000000 27.662570434     0.000000000  0.000000000  0.036149931

  length of vectors
    13.771350861  9.564481735 27.662570434     0.072614518  0.104553496  0.036149931

 FORCES acting on ions
    electron-ion (+dipol)            ewald-force                    non-local-force                 convergence-correction
   -.464E+02 -.338E+02 0.375E+03   0.462E+02 0.336E+02 -.374E+03   0.107E+00 0.716E-01 -.780E+00   -.241E-01 -.583E-02 -.211E-01
   -.172E+02 -.272E+02 -.121E+03   0.171E+02 0.275E+02 0.121E+03   0.954E-01 -.281E+00 -.240E+00   -.166E-01 -.175E-02 -.292E-01
   0.419E+02 -.403E+02 -.358E+03   -.418E+02 0.426E+02 0.357E+03   -.781E-01 -.222E+01 0.138E+01   -.125E-01 -.725E-02 -.122E-02
   0.208E+01 0.503E+01 0.190E+03   -.214E+01 -.493E+01 -.190E+03   0.118E+00 -.227E+00 -.691E+00   -.274E-01 0.959E-03 -.325E-01
   -.677E+02 0.577E+01 -.121E+03   0.674E+02 -.533E+01 0.123E+03   0.246E+00 -.443E+00 -.122E+01   0.212E-01 -.223E-02 -.299E-01
   -.474E+02 0.470E+01 0.316E+03   0.467E+02 -.414E+01 -.314E+03   0.651E+00 -.977E+00 -.227E+01   0.303E-01 -.376E-03 -.213E-01
   -.385E+03 -.538E+01 0.429E+03   0.384E+03 0.601E+01 -.430E+03   0.188E+00 -.339E+00 0.938E+00   -.448E-01 0.317E-01 -.143E+00
   -.305E+03 -.203E+01 -.165E+04   0.304E+03 0.282E+01 0.165E+04   0.118E+01 -.780E+00 0.410E+01   -.644E-02 -.802E-02 -.209E-01
   0.106E+03 -.945E+01 0.161E+04   -.105E+03 0.838E+01 -.160E+04   -.533E+00 0.594E+00 -.428E+01   -.862E-01 -.693E-02 -.702E-01
   0.253E+03 0.172E+02 -.427E+03   -.253E+03 -.174E+02 0.428E+03   0.117E+00 0.267E+00 -.136E+01   -.975E-01 0.198E-02 -.154E+00
   -.523E+02 0.137E+03 0.168E+04   0.533E+02 -.137E+03 -.168E+04   -.534E+00 -.387E+00 -.280E+01   -.115E+00 0.318E-01 -.822E-01
   0.112E+03 0.120E+03 -.419E+03   -.111E+03 -.121E+03 0.420E+03   -.638E+00 0.203E+00 -.463E+00   -.655E-01 -.174E-01 -.171E+00
   -.422E+03 0.308E+01 0.697E+03   0.423E+03 -.413E+01 -.696E+03   -.725E+00 0.133E+01 -.148E+01   -.301E-01 -.263E-01 -.157E+00
   -.377E+03 0.768E+02 -.141E+04   0.378E+03 -.763E+02 0.140E+04   -.272E+00 -.533E+00 0.220E+01   -.400E-01 -.226E-01 -.132E-01
   0.302E+03 -.115E+03 0.151E+04   -.302E+03 0.116E+03 -.150E+04   0.240E+00 -.382E+00 -.414E+01   -.764E-01 0.527E-01 -.759E-01
   0.391E+03 -.106E+03 -.473E+03   -.391E+03 0.106E+03 0.473E+03   0.311E+00 0.395E+00 -.688E+00   -.683E-01 -.294E-01 -.146E+00
   -.104E+02 0.110E+01 0.172E+03   0.999E+01 -.981E+00 -.172E+03   0.549E+00 -.316E+00 0.107E+00   -.314E-01 -.272E-02 -.654E-01
   0.759E+01 -.233E+02 -.646E+03   -.821E+01 0.228E+02 0.643E+03   0.648E+00 0.531E+00 0.265E+01   -.194E-01 0.146E-01 -.146E-01
   0.174E+03 -.616E+01 0.146E+03   -.173E+03 0.588E+01 -.147E+03   -.122E+01 0.569E+00 0.768E+00   0.725E-03 0.698E-02 -.706E-01
   0.146E+03 -.882E+01 -.590E+03   -.145E+03 0.893E+01 0.587E+03   -.691E+00 -.103E+00 0.325E+01   0.139E-02 -.211E-03 -.260E-01
   0.129E+03 -.613E+02 -.138E+03   -.128E+03 0.610E+02 0.138E+03   -.179E+00 0.271E+00 0.101E+00   0.118E-02 0.901E-03 -.464E-01
   0.118E+03 -.552E+02 0.461E+03   -.116E+03 0.553E+02 -.458E+03   -.821E+00 -.201E+00 -.265E+01   0.523E-02 0.286E-02 -.132E-01
   -.102E+03 0.576E+02 -.149E+03   0.102E+03 -.573E+02 0.148E+03   0.112E+00 -.291E+00 0.639E+00   -.833E-02 -.646E-03 -.400E-01
   -.101E+03 0.598E+02 0.516E+03   0.100E+03 -.592E+02 -.513E+03   0.441E+00 -.474E+00 -.273E+01   -.156E-01 0.871E-03 -.294E-01
   0.862E+02 -.112E+02 0.150E+03   -.871E+02 0.106E+02 -.150E+03   0.809E+00 0.743E+00 -.342E+00   -.296E-01 0.246E-03 -.537E-01
   0.117E+03 0.110E+01 -.486E+03   -.118E+03 -.109E+01 0.484E+03   0.501E+00 -.110E-01 0.185E+01   -.208E-01 0.409E-02 -.134E-01
   -.154E+03 -.103E+02 -.434E+03   0.154E+03 0.102E+02 0.432E+03   0.273E+00 0.640E-01 0.213E+01   0.103E-01 0.879E-03 -.580E-02
   -.168E+03 0.667E+01 0.179E+03   0.168E+03 -.652E+01 -.180E+03   0.357E+00 -.329E+00 0.366E+00   0.152E-01 0.115E-02 -.369E-01
   -.151E+03 -.558E+01 0.472E+03   0.150E+03 0.555E+01 -.469E+03   0.682E+00 -.577E-01 -.256E+01   0.151E-01 0.173E-01 -.294E-01
   -.207E+03 -.166E+01 -.162E+03   0.206E+03 0.175E+01 0.162E+03   0.718E+00 -.977E-01 0.303E+00   0.139E-01 0.316E-02 -.380E-01
   0.855E+02 0.112E+01 0.164E+03   -.857E+02 -.731E+00 -.165E+03   0.145E-01 -.106E+00 -.186E-01   -.318E-01 0.673E-04 -.515E-01
   0.143E+03 0.313E+02 -.526E+03   -.142E+03 -.309E+02 0.524E+03   -.729E+00 -.335E+00 0.176E+01   -.249E-01 0.622E-03 -.137E-01
   0.802E+02 -.727E+01 -.173E+03   -.803E+02 0.752E+01 0.172E+03   0.197E+00 -.246E+00 0.628E+00   -.258E-01 -.345E-02 -.431E-01
   0.369E+02 -.865E+00 0.495E+03   -.376E+02 0.802E+00 -.492E+03   0.619E+00 0.224E-01 -.249E+01   -.465E-01 0.614E-03 -.210E-01
   0.134E+03 0.672E+01 0.145E+03   -.134E+03 -.692E+01 -.145E+03   -.743E+00 0.593E+00 -.302E+00   -.193E-01 -.337E-02 -.524E-01
   0.127E+03 0.414E+02 -.516E+03   -.126E+03 -.410E+02 0.514E+03   -.810E+00 -.418E+00 0.259E+01   -.223E-01 0.665E-02 -.184E-01
   0.128E+03 0.824E+01 0.165E+03   -.128E+03 -.787E+01 -.165E+03   -.349E-01 -.395E+00 -.489E+00   0.644E-02 -.387E-02 -.549E-01
   0.556E+02 0.578E+01 -.435E+03   -.560E+02 -.613E+01 0.433E+03   0.394E+00 0.352E+00 0.224E+01   0.215E-02 0.531E-02 -.180E-01
   0.126E+03 0.390E+02 0.417E+03   -.126E+03 -.388E+02 -.414E+03   0.170E+00 -.533E+00 -.287E+01   0.656E-02 -.111E-02 -.192E-01
   0.126E+03 0.391E+02 -.164E+03   -.126E+03 -.387E+02 0.164E+03   -.193E+00 -.362E+00 -.665E+00   0.454E-02 0.132E-02 -.416E-01
   -.100E+03 -.108E+01 0.480E+03   0.101E+03 0.107E+01 -.476E+03   -.487E+00 0.287E-01 -.309E+01   0.177E-01 -.146E-01 -.282E-01
   -.159E+03 0.342E+01 -.138E+03   0.159E+03 -.353E+01 0.139E+03   0.344E+00 0.107E+00 -.649E+00   0.137E-01 0.659E-03 -.380E-01
   0.132E+03 0.284E+02 0.446E+03   -.131E+03 -.286E+02 -.443E+03   -.210E+00 0.354E+00 -.255E+01   -.193E-01 -.121E-01 -.204E-01
   0.149E+03 0.221E+02 -.186E+03   -.148E+03 -.219E+02 0.185E+03   -.519E+00 -.196E+00 0.273E+00   -.218E-01 0.192E-02 -.446E-01
   0.893E+02 -.349E+02 -.479E+03   -.900E+02 0.346E+02 0.476E+03   0.732E+00 0.356E+00 0.367E+01   -.180E-01 -.184E-02 -.146E-01
   0.134E+03 -.287E+01 0.186E+03   -.134E+03 0.268E+01 -.187E+03   0.225E+00 0.474E-01 0.569E-01   -.217E-01 0.250E-02 -.616E-01
   0.321E+02 0.107E+01 0.125E+03   -.320E+02 -.106E+01 -.126E+03   -.315E-01 -.811E-01 0.202E+00   0.236E-01 -.181E-02 -.497E-01
   0.758E+01 0.105E+02 -.436E+03   -.790E+01 -.104E+02 0.433E+03   0.300E+00 -.118E+00 0.336E+01   0.209E-01 -.165E-02 -.122E-01
   -.426E+02 -.270E+00 0.432E+03   0.428E+02 0.634E+00 -.429E+03   -.502E-01 -.259E+00 -.276E+01   0.241E-01 0.131E-02 -.220E-01
   -.762E+02 -.417E+01 -.146E+03   0.761E+02 0.382E+01 0.146E+03   0.636E-01 0.345E+00 -.548E-01   0.287E-01 0.223E-02 -.366E-01
   0.502E+02 -.302E+01 0.410E+03   -.503E+02 0.235E+01 -.407E+03   -.194E-01 0.176E+00 -.314E+01   0.312E-01 0.490E-02 -.225E-01
   0.427E+02 0.134E+01 -.155E+03   -.425E+02 -.154E+01 0.156E+03   -.246E+00 0.202E+00 -.685E+00   0.230E-01 0.453E-03 -.415E-01
   -.737E+02 -.211E+01 0.162E+03   0.738E+02 0.242E+01 -.162E+03   0.169E-01 0.615E-01 0.824E-01   0.329E-01 0.505E-02 -.456E-01
   -.760E+02 -.296E+01 -.416E+03   0.762E+02 0.315E+01 0.414E+03   -.192E+00 -.196E+00 0.282E+01   0.270E-01 0.211E-02 -.954E-02
   0.397E+02 0.113E+01 0.427E+03   -.390E+02 -.100E+01 -.423E+03   -.807E+00 -.272E+00 -.320E+01   0.307E-01 -.628E-02 -.168E-01
   0.236E+02 -.501E+01 -.133E+03   -.230E+02 0.506E+01 0.133E+03   -.562E+00 -.571E-01 -.450E+00   0.225E-01 0.143E-02 -.395E-01
   -.100E+03 -.349E+00 0.133E+03   0.100E+03 0.666E-01 -.134E+03   0.448E+00 0.336E+00 0.184E+00   0.309E-01 -.515E-02 -.482E-01
   -.105E+03 -.523E+00 -.452E+03   0.104E+03 -.125E+00 0.448E+03   0.100E+01 0.648E+00 0.372E+01   0.215E-01 -.516E-03 -.447E-02
   0.272E+02 -.102E+02 -.413E+03   -.264E+02 0.101E+02 0.411E+03   -.783E+00 0.921E-01 0.262E+01   0.173E-01 0.387E-02 -.176E-01
   0.488E+02 -.528E+01 0.163E+03   -.482E+02 0.515E+01 -.164E+03   -.576E+00 0.562E+00 0.123E+00   0.310E-01 0.138E-02 -.551E-01
   -.141E+03 -.430E+02 0.512E+03   0.141E+03 0.423E+02 -.508E+03   0.804E+00 0.552E-01 -.323E+01   -.898E-02 -.728E-03 -.265E-01
   -.150E+03 -.434E+02 -.133E+03   0.150E+03 0.429E+02 0.133E+03   0.259E+00 0.510E+00 -.772E+00   -.810E-02 0.507E-02 -.367E-01
   -.161E+03 0.460E+01 0.163E+03   0.160E+03 -.454E+01 -.164E+03   0.626E+00 0.415E+00 0.455E+00   0.151E-01 -.600E-03 -.494E-01
   -.137E+03 0.941E+01 -.458E+03   0.137E+03 -.858E+01 0.454E+03   0.438E+00 -.826E+00 0.339E+01   0.117E-01 0.276E-02 -.323E-02
   0.132E+03 -.606E+02 -.952E+03   -.134E+03 0.586E+02 0.972E+03   0.195E+01 0.207E+01 -.194E+02   -.233E-01 -.506E-02 0.145E-01
   -.372E+01 0.408E+00 0.293E+02   -.398E-12 0.171E-12 0.239E-11   0.427E+01 -.482E+00 -.266E+02   -.570E+00 0.288E-01 -.271E+01

 POSITION                                       TOTAL-FORCE (eV/Angst)
      8.57631      8.29685     10.39845        -0.083766     -0.152998      0.037396
      8.56674      3.68761     15.10953         0.000604     -0.000457      0.001734
      8.50343      6.22156     17.50089         0.002300      0.000929     -0.004532
      8.51616      0.79995     12.43874         0.027901     -0.117649     -0.218534
     13.51558      6.11010     15.29660         0.001664     -0.001926      0.004237
     13.49094      1.15316     10.44749        -0.018768     -0.419514     -0.046545
     10.03344      3.28428     12.67411        -0.002045      0.326811     -0.545761
      9.96722      8.60838     17.17703         0.001783      0.006213      0.002268
      7.12524      5.81577     10.15765        -0.182080     -0.476280      0.896734
      7.04831      1.22579     14.92072         0.003403     -0.004771      0.004926
      8.51222      3.28036     10.20450         0.281989      0.102871      0.704143
      8.52194      8.36694     14.86236         0.000021     -0.004301     -0.003286
     10.22263      8.06723     12.77991         0.260052      0.245012     -0.530398
     10.13140      3.88072     17.41843        -0.002054     -0.004869     -0.004205
      5.42664      8.10481     10.20639         0.325256      0.038693      0.937224
      5.41861      3.53810     15.00767         0.000891     -0.001143      0.003722
      8.52843      5.75423     12.65640         0.086771     -0.196547      0.020864
      8.52559      1.34748     17.16111         0.000597      0.001311     -0.006976
      3.84829      7.97317     12.47259        -0.384062      0.295338     -0.384847
      3.83758      3.77988     17.12478         0.002826      0.007685      0.000599
      3.81793      5.67185     14.94891        -0.000215      0.001046      0.001239
      3.90063      0.73891     10.00000         0.514200     -0.111500      0.362034
     10.04184      6.02544     15.00984        -0.001432      0.003895      0.002872
     10.19112      1.10470     10.13736        -0.224566      0.073827      0.389031
      6.82945      7.99424     12.66670        -0.083913      0.185662     -0.364650
      7.03409      3.75942     17.39703         0.003101      0.002355     -0.002395
     11.54841      6.22996     17.21065         0.001340      0.001272      0.002044
     11.66772      1.05372     12.57547        -0.049161     -0.175887     -0.839076
     11.73919      3.33868     10.41199        -0.305250     -0.076836      0.594287
     11.71728      8.21498     15.21535        -0.000760      0.000329      0.001166
      7.18522      3.24644     12.75390        -0.266206      0.282165     -0.537684
      7.11631      8.58091     17.14559        -0.000958      0.004355     -0.001267
      6.92158      5.97280     14.99269         0.003709      0.002044     -0.000233
      6.87795      0.97560     10.08695        -0.089448     -0.039523      0.171378
      5.51084      5.55012     12.48419        -0.005804      0.388391     -0.091632
      5.47562      1.42694     17.17778         0.004970      0.001102     -0.002176
      3.51249      3.50019     12.83519        -0.057545     -0.033447     -0.603924
      3.30648      8.81947     17.30550        -0.002675     -0.000704     -0.000088
      3.46798      5.87237     10.40868         0.092734     -0.262459     -0.091050
      3.38723      1.29703     15.18501         0.000124      0.002186      0.002590
     11.91771      8.21633     10.24534        -0.157244      0.004248      0.661217
     11.91196      3.65945     15.10626        -0.001946      0.001074     -0.000647
      5.24135      3.36543     10.32679         0.184428      0.107282      0.077999
      5.13826      8.30254     15.12699         0.000101      0.002780     -0.000146
      5.26504      6.23735     17.39460         0.001917      0.003919      0.001832
      5.28930      0.99064     12.60849         0.050898     -0.137502     -0.417417
      1.60538      5.84491     12.85122         0.122375     -0.069880     -0.576489
      1.56735      1.77808     17.54095        -0.000302      0.000915     -0.001350
     13.72038      5.67134     10.18293         0.188373      0.106287      0.677871
     13.68606      1.10517     15.12056        -0.000390      0.002098      0.000953
      1.63456      8.33987     10.36453        -0.043542     -0.482485      0.150379
      1.59667      3.75806     15.20078        -0.002524      0.003185      0.000831
     13.76831      3.16119     12.53308         0.143187      0.381088     -0.341562
     -0.03483      8.44932     17.25402        -0.000201      0.002620      0.000019
      1.99440      3.17314     10.17666        -0.113539     -0.155702      0.667508
      1.85308      8.12206     14.96731         0.001453     -0.000433      0.002292
     13.48051      8.37930     12.86886        -0.024107      0.049284     -0.387674
     13.30224      4.14615     17.71775         0.000419      0.000988     -0.001092
      2.03072      6.14298     17.22690         0.000234      0.002924     -0.002390
      2.02729      0.87737     12.46815         0.014014      0.431701     -0.292104
     10.07171      5.79402     10.14663         0.146224     -0.620619      0.196554
     10.18624      1.20213     14.89888        -0.001510      0.001072      0.003675
     11.97051      5.66181     12.67660        -0.357740      0.471190     -0.277907
     11.85193      1.42864     17.50250        -0.001664      0.001269     -0.001761
      8.48604      4.55388     18.43656        -0.004443      0.000016     -0.001822
    total drift:                               -0.017808     -0.045305      0.022716

  FREE ENERGIE OF THE ION-ELECTRON SYSTEM (eV)
  free  energy   TOTEN  =      -514.20468249 eV

  energy  without entropy=     -514.19343127  energy(sigma->0) =     -514.20186969

 d Force = 0.3993731E-04[ 0.180E-04, 0.619E-04]  d Energy = 0.3972144E-04 0.216E-06
 d Force =-0.4735854E+00[-0.474E+00,-0.474E+00]  d Ewald  =-0.4735857E+00 0.341E-06

 Conjugate gradient step on ions:
 trial-energy change:   -0.000040  1 .order   -0.000040   -0.000062   -0.000018
  (g-gl).g = 0.962E-05      g.g   = 0.949E-05  gl.gl    = 0.102E-04
 g(Force)  = 0.949E-05   g(Stress)= 0.000E+00 ortho     = 0.168E-05
 gamma     =   0.93849
 trial     =   5.59514
 opt step  =   7.88881  (harmonic =   7.88881) maximal distance =0.00156458
 next E    =  -514.204686   (d E  =  -0.00004)

 reached required accuracy - stopping structural energy minimisation