 vasp.5.4.1 05Feb16 (build Mar 19 2020 08:54:17) complex

 executed on           IFC91_ompi date 2021.11.11  22:38:59

 INCAR:
 POTCAR:    PAW_PBE Al 04Jan2001
 POTCAR:    PAW_PBE Nb_sv 25May2007
 POTCAR:    PAW_PBE Ta 17Jan2003
 POTCAR:    PAW_PBE Ti 08Apr2002
 POTCAR:   PAW_PBE Zr 08Apr2002
 POTCAR:    PAW_PBE O 08Apr2002

 POTCAR:    PAW_PBE Al 04Jan2001
   VRHFIN =Al: s2p1

   TITEL  = PAW_PBE Al 04Jan2001
   POMASS =   26.981; ZVAL   =    3.000    mass and valenz
   ENMAX  =  240.300; ENMIN  =  180.225 eV

 POTCAR:    PAW_PBE Nb_sv 25May2007
   VRHFIN =Nb: 4p5s4d

   TITEL  = PAW_PBE Nb_sv 25May2007
   POMASS =   92.910; ZVAL   =   13.000    mass and valenz
   ENMAX  =  293.235; ENMIN  =  219.927 eV

 POTCAR:    PAW_PBE Ta 17Jan2003
   VRHFIN =Ta:  6s5d

   TITEL  = PAW_PBE Ta 17Jan2003
   POMASS =  180.948; ZVAL   =    5.000    mass and valenz
   ENMAX  =  223.667; ENMIN  =  167.750 eV

 POTCAR:    PAW_PBE Ti 08Apr2002
   VRHFIN =Ti: d3 s1

   TITEL  = PAW_PBE Ti 08Apr2002
   POMASS =   47.880; ZVAL   =    4.000    mass and valenz
   ENMAX  =  178.330; ENMIN  =  133.747 eV

 POTCAR:   PAW_PBE Zr 08Apr2002
   VRHFIN =Zr: 5s4d5p

   TITEL  = PAW_PBE Zr 08Apr2002
   POMASS =   91.224; ZVAL   =    4.000    mass and valenz
   ENMAX  =  154.632; ENMIN  =  115.974 eV
   QCUT   =   -3.371; QGAM   =    6.742    optimization parameters

   Description
     l     E      TYP  RCUT    TYP  RCUT
     2   .000     23  3.000
     2   .000     23  3.000
     0   .000     23  3.000
     0  2.000     23  3.000
     1  -.400     23  3.000
     3   .000      7   .000

 POTCAR:    PAW_PBE O 08Apr2002
   VRHFIN =O: s2p4

   TITEL  = PAW_PBE O 08Apr2002
   POMASS =   16.000; ZVAL   =    6.000    mass and valenz
   ENMAX  =  400.000; ENMIN  =  300.000 eV

 Optimization of the real space projectors (new method)

 maximal supplied QI-value         = 19.84
 optimisation between [QCUT,QGAM] = [ 12.50, 25.00] = [ 43.76,175.03] Ry
 Optimized for a Real-space Cutoff    1.06 Angstroem

   l    n(q)    QCUT    max X(q) W(low)/X(q) W(high)/X(q)  e(spline)
   0      8    12.501   176.870    0.16E-03    0.12E-03    0.66E-07
   0      8    12.501   105.762    0.15E-03    0.12E-03    0.64E-07
   1      7    12.501    55.370    0.36E-03    0.38E-03    0.67E-07
   1      7    12.501    20.208    0.32E-03    0.35E-03    0.64E-07
 Optimization of the real space projectors (new method)

[...]

   l    n(q)    QCUT    max X(q) W(low)/X(q) W(high)/X(q)  e(spline)
   2     11    12.478    49.363    0.45E-03    0.34E-03    0.89E-06
   2     11    12.478    47.669    0.44E-03    0.33E-03    0.87E-06
   0     12    12.478    26.374    0.17E-03    0.37E-04    0.21E-05
   0     12    12.478    11.549    0.13E-03    0.31E-04    0.17E-05
   1     11    12.478     9.492    0.91E-05    0.64E-04    0.34E-06
 Optimization of the real space projectors (new method)

[...]

   l    n(q)    QCUT    max X(q) W(low)/X(q) W(high)/X(q)  e(spline)
   2     12    12.472     5.149    0.23E-04    0.12E-05    0.19E-06
   2     12    12.472    48.417    0.26E-03    0.15E-03    0.35E-05
   0     13    12.472    27.113    0.15E-04    0.46E-05    0.14E-06
   0     13    12.472    33.957    0.20E-04    0.33E-04    0.12E-05
   1     12    12.472    13.771    0.11E-04    0.23E-05    0.34E-06
 WARNING: PSMAXN for non-local potential too small
          PSMAXN should be >   12.5490833729506       NTYP=           5
 Optimization of the real space projectors (new method)

 maximal supplied QI-value         = 24.76
 optimisation between [QCUT,QGAM] = [ 12.38, 25.00] = [ 42.90,175.06] Ry
 Optimized for a Real-space Cutoff    1.13 Angstroem

   l    n(q)    QCUT    max X(q) W(low)/X(q) W(high)/X(q)  e(spline)
   0      8    12.378    20.381    0.16E-03    0.54E-05    0.27E-06
   0      8    12.378    15.268    0.17E-03    0.61E-05    0.29E-06
   1      8    12.378     5.964    0.38E-03    0.23E-03    0.28E-06
   1      8    12.378     5.382    0.33E-03    0.20E-03    0.25E-06
  PAW_PBE Al 04Jan2001                  :
  PAW_PBE Nb_sv 25May2007               :
  PAW_PBE Ta 17Jan2003                  :
  PAW_PBE Ti 08Apr2002                  :
 PAW_PBE Zr 08Apr2002                   :
  PAW_PBE O 08Apr2002                   :

 POSCAR: Al Nb Ta Ti Zr
  positions in direct lattice
  velocities in cartesian coordinates
 exchange correlation table for  LEXCH =        8
   RHO(1)=    0.500       N(1)  =     2000
   RHO(2)=  100.500       N(2)  =     4000

 ion  position               nearest neighbor table
   1  0.623  0.867  0.376-  34 2.83  25 2.88  24 2.88   9 2.88  13 2.90   4 2.91  61 2.93  15 3.16
                            41 3.35  17 3.40
   2  0.623  0.393  0.547-  14 2.79  31 2.79  23 2.80  33 2.80  26 2.80   7 2.88  10 2.90  62 2.97
                            18 3.06  17 3.17  16 3.19   3 3.22  42 3.34
   3  0.618  0.638  0.627-  32 2.76  14 2.83  23 2.90  33 2.91   8 2.91  26 2.99  27 2.99  45 3.19
                             2 3.22
   4  0.618  0.084  0.450-  31 2.80  24 2.86  34 2.87  13 2.88   1 2.91  10 2.91  25 2.92   7 2.92
                            62 2.98  12 3.13  28 3.16  46 3.24
   5  0.975  0.641  0.551-  30 2.75  42 2.90  56 2.91  27 2.93  63 2.98  52 3.01  54 3.09  47 3.09
                            59 3.11  58 3.23  23 3.26  57 3.27
   6  0.980  0.121  0.378-  29 2.80  28 2.80  53 2.91  41 2.96  51 3.05  55 3.05  60 3.08  57 3.37

   7  0.729  0.343  0.458-  28 2.77  29 2.83  31 2.85   2 2.88  17 2.89  11 2.90   4 2.92  62 3.01
                            63 3.07  42 3.09
   8  0.725  0.900  0.620-  30 2.59  32 2.70  12 2.71  27 2.76  18 2.82   3 2.91  64 3.08  62 3.16

   9  0.517  0.608  0.367-  35 2.84  15 2.85  17 2.87   1 2.88  11 2.89  61 2.95  43 3.10
  10  0.515  0.133  0.540-  18 2.75  36 2.79  16 2.81  12 2.87   2 2.90   4 2.91  31 2.95  46 2.96
                            62 3.06  44 3.15
  11  0.618  0.343  0.369-  24 2.75  34 2.83  31 2.87   9 2.89   7 2.90  61 2.96  43 3.27
  12  0.621  0.874  0.537-  13 2.68   8 2.71  32 2.71  25 2.80  23 2.83  10 2.87  62 2.93  33 2.94
                             4 3.13  44 3.39
  13  0.742  0.843  0.462-  12 2.68  17 2.87   4 2.88   1 2.90  30 2.92  28 2.94  23 2.97  63 2.98
                            41 3.05  57 3.27  62 3.46
  14  0.744  0.405  0.627-  27 2.73   2 2.79  42 2.81   3 2.83  18 2.86  64 2.96  58 3.09
  15  0.394  0.847  0.369-  22 2.68  19 2.76  25 2.83  34 2.84   9 2.85  39 2.98   1 3.16  46 3.43

  16  0.392  0.367  0.543-  21 2.64  20 2.66  26 2.71  10 2.81  33 2.85  37 2.89  31 2.90  40 3.02
                             2 3.19
  17  0.619  0.602  0.458-  25 2.81  33 2.84  31 2.85  23 2.85   9 2.87  13 2.87   7 2.89  61 2.95
                            35 3.03   2 3.17   1 3.40  63 3.44
  18  0.627  0.159  0.622-  10 2.75  26 2.76  62 2.78   8 2.82  14 2.86  32 2.86   2 3.06  36 3.18
                            64 3.27
  19  0.279  0.834  0.451-  15 2.76  35 2.94  46 2.96  39 2.97  25 2.99  44 2.99  60 3.07  51 3.08
                            47 3.12  56 3.25
  20  0.280  0.370  0.621-  67 2.27  16 2.66  36 2.92  26 3.00  52 3.00  21 3.03  40 3.06  45 3.07
                            59 3.12  48 3.15
  21  0.279  0.590  0.543-  16 2.64  45 2.89  52 2.98  59 2.99  44 3.00  35 3.03  33 3.03  20 3.03
                            37 3.07  47 3.12  56 3.14
  22  0.283  0.077  0.361-  15 2.68  46 2.97  43 2.97  34 2.99  51 3.02  55 3.10  60 3.10
  23  0.739  0.633  0.541-  30 2.76   2 2.80  27 2.80  12 2.83  17 2.85   3 2.90  63 2.93  42 2.96
                            13 2.97   5 3.26
  24  0.740  0.115  0.366-  29 2.73  11 2.75  28 2.85   4 2.86   1 2.88  41 3.00
  25  0.496  0.836  0.458-  35 2.78  12 2.80  17 2.81  15 2.83   1 2.88   4 2.92  44 2.98  19 2.99
                            46 2.99  33 3.05
  26  0.497  0.378  0.626-  16 2.71  18 2.76   2 2.80  36 2.85   3 2.99  20 3.00  45 3.02
  27  0.834  0.660  0.630-  68 2.13  14 2.73   8 2.76  58 2.80  23 2.80   5 2.93  30 2.96   3 2.99
                            54 3.04
  28  0.847  0.110  0.455-   7 2.77  62 2.77   6 2.80  24 2.85  57 2.90  13 2.94  53 2.98  29 3.15
                             4 3.16  50 3.19  41 3.36
  29  0.852  0.349  0.376-  24 2.73   6 2.80   7 2.83  53 2.94  61 2.98  49 3.07  28 3.15  63 3.25

  30  0.853  0.869  0.552-   8 2.59   5 2.75  23 2.76  54 2.91  13 2.92  27 2.96  57 2.96  62 2.99
                            50 3.05
  31  0.522  0.339  0.461-   2 2.79   4 2.80  17 2.85   7 2.85  35 2.86  11 2.87  16 2.90  10 2.95
                            46 2.95  43 3.11
  32  0.529  0.896  0.623-  65 2.01   8 2.70  12 2.71   3 2.76  36 2.78  18 2.86  44 2.99  45 3.07

  33  0.498  0.623  0.540-   2 2.80  35 2.83  17 2.84  16 2.85   3 2.91  44 2.92  12 2.94  45 2.94
                            21 3.03  25 3.05
  34  0.499  0.102  0.365-  11 2.83   1 2.83  15 2.84   4 2.87  43 2.91  46 2.98  22 2.99
  35  0.400  0.580  0.451-  25 2.78  33 2.83   9 2.84  31 2.86  37 2.88  39 2.93  19 2.94  21 3.03
                            17 3.03  43 3.08
  36  0.398  0.117  0.622-  67 2.03  65 2.18  32 2.78  10 2.79  26 2.85  38 2.91  20 2.92  40 2.92
                            44 3.15  18 3.18
  37  0.255  0.366  0.464-  35 2.88  16 2.89  47 3.02  60 3.04  43 3.05  21 3.07  55 3.08  46 3.08
                            52 3.16  40 3.24  39 3.39
  38  0.239  0.918  0.628-  65 2.03  67 2.15  56 2.86  36 2.91  44 2.97  40 3.01  59 3.06  48 3.13
                            45 3.26  54 3.34
  39  0.252  0.614  0.376-  35 2.93  19 2.97  15 2.98  47 3.07  43 3.07  51 3.07  55 3.08  37 3.39
                            49 3.53
  40  0.245  0.133  0.549-  67 2.44  36 2.92  38 3.01  16 3.02  60 3.06  20 3.06  44 3.08  52 3.11
                            56 3.19  46 3.22  48 3.22  37 3.24  50 3.46
  41  0.865  0.859  0.370-   6 2.96  24 3.00  61 3.05  13 3.05  57 3.06  49 3.12   1 3.35  28 3.36
                            51 3.49  63 3.53
  42  0.865  0.383  0.546-  14 2.81   5 2.90  23 2.96  62 3.00   7 3.09  58 3.11  63 3.14  50 3.14
                            53 3.20   2 3.34  64 3.35  52 3.41
  43  0.381  0.352  0.373-  34 2.91  22 2.97  37 3.05  39 3.07  35 3.08   9 3.10  31 3.11  55 3.26
                            11 3.27  46 3.29
  44  0.376  0.872  0.547-  65 2.44  33 2.92  38 2.97  25 2.98  19 2.99  32 2.99  21 3.00  40 3.08
                            45 3.13  36 3.15  10 3.15  56 3.36  46 3.36  12 3.39
  45  0.386  0.651  0.630-  65 2.32  21 2.89  33 2.94  26 3.02  32 3.07  20 3.07  44 3.13   3 3.19
                            38 3.26  59 3.35
  46  0.384  0.104  0.456-  31 2.95  19 2.96  10 2.96  22 2.97  34 2.98  25 2.99  37 3.08  40 3.22
                             4 3.24  60 3.27  43 3.29  44 3.36  15 3.43
  47  0.117  0.611  0.465-  37 3.02  39 3.07   5 3.09  56 3.11  19 3.12  21 3.12  53 3.14  49 3.15
                            57 3.17  52 3.20  63 3.42  51 3.52  55 3.80
  48  0.100  0.174  0.639-  66 2.08  67 2.17  50 3.06  38 3.13  20 3.15  58 3.15  52 3.19  54 3.22
                            40 3.22  64 3.27
  49  0.996  0.593  0.368-  63 3.05  29 3.07  41 3.12  47 3.15  51 3.16  55 3.23  53 3.44  39 3.53
                            61 3.65  57 3.82
[...]

  FORCE on cell =-STRESS in cart. coord.  units (eV):
  Direction    XX          YY          ZZ          XY          YZ          ZX
  Alpha Z   552.32592   552.32592   552.32592
  Ewald   83753.26842 88083.82953-95477.14376  -843.54223   -92.51809   514.07054
  Hartree 88478.54091 92618.51832-84493.22658  -668.38652   -88.74163   512.54207
  E(xc)   -1563.63102 -1564.99918 -1552.81424    -0.00250    -0.95064     0.31985
  Local  ************************176031.49214  1509.07778   182.69835 -1029.26693
  n-local  -103.60609  -104.59093  -143.71014     9.86333    -1.23368     2.41034
  augment   461.44018   462.32251   457.61853    -1.51368     0.18550    -0.12111
  Kinetic  4585.93842  4572.30658  4609.24142   -10.05044     6.09813    -1.05016
  Fock        0.00000     0.00000     0.00000     0.00000     0.00000     0.00000
  Total     -35.09105   -31.61671   -16.21671    -4.55428     5.53795    -1.09541
  in kB     -15.43037   -13.90262    -7.13088    -2.00262     2.43517    -0.48168

 VOLUME and BASIS-vectors are now :
  energy-cutoff  :      600.00
  volume of cell :     3643.60
      direct lattice vectors                 reciprocal lattice vectors
    13.771350861  0.000000000  0.000000000     0.072614518  0.000000000  0.000000000
     0.000000000  9.564481735  0.000000000     0.000000000  0.104553496  0.000000000
     0.000000000  0.000000000 27.662570434     0.000000000  0.000000000  0.036149931

  length of vectors
    13.771350861  9.564481735 27.662570434     0.072614518  0.104553496  0.036149931

 FORCES acting on ions
    electron-ion (+dipol)            ewald-force                    non-local-force                 convergence-correction
   -.463E+02 -.336E+02 0.390E+03   0.461E+02 0.333E+02 -.389E+03   0.103E+00 0.892E-01 -.813E+00   0.319E-03 -.110E-02 0.662E-03
   -.127E+02 -.360E+02 -.123E+03   0.128E+02 0.359E+02 0.123E+03   -.747E-01 0.723E-01 0.569E-01   -.694E-03 0.741E-03 -.747E-03
   0.414E+02 0.232E+02 -.371E+03   -.408E+02 -.227E+02 0.370E+03   -.544E+00 -.463E+00 0.975E+00   -.398E-03 0.257E-03 -.886E-03
   0.236E+01 0.472E+01 0.209E+03   -.247E+01 -.456E+01 -.209E+03   0.760E-01 -.282E+00 -.849E+00   -.135E-03 0.476E-04 0.580E-03
   -.625E+02 0.703E+01 -.722E+02   0.623E+02 -.665E+01 0.718E+02   0.196E+00 -.385E+00 0.412E+00   -.164E-04 0.777E-04 -.252E-03
   -.461E+02 0.461E+01 0.334E+03   0.454E+02 -.404E+01 -.332E+03   0.660E+00 -.984E+00 -.227E+01   -.767E-04 0.488E-03 -.191E-03
   -.367E+03 -.981E+01 0.509E+03   0.367E+03 0.106E+02 -.511E+03   0.172E+00 -.356E+00 0.897E+00   -.297E-02 0.586E-02 -.217E-02
   -.241E+03 0.849E+01 -.161E+04   0.239E+03 -.754E+01 0.161E+04   0.130E+01 -.955E+00 0.348E+01   -.258E-02 -.240E-02 -.378E-02
   0.102E+03 -.824E+01 0.167E+04   -.102E+03 0.719E+01 -.166E+04   -.539E+00 0.593E+00 -.434E+01   0.538E-03 -.687E-03 0.400E-02
   0.166E+03 -.169E+02 -.341E+03   -.166E+03 0.170E+02 0.343E+03   0.124E+00 -.124E+00 -.132E+01   -.306E-02 0.473E-03 0.643E-03
   -.519E+02 0.136E+03 0.174E+04   0.526E+02 -.136E+03 -.174E+04   -.514E+00 -.395E+00 -.281E+01   0.329E-02 0.522E-02 0.306E-02
   0.100E+03 0.136E+03 -.337E+03   -.994E+02 -.136E+03 0.338E+03   -.851E+00 0.106E+00 -.301E+00   -.200E-02 -.448E-02 -.762E-03
   -.410E+03 0.551E+01 0.786E+03   0.411E+03 -.658E+01 -.785E+03   -.793E+00 0.135E+01 -.150E+01   -.298E-02 -.601E-02 0.189E-02
   -.685E+02 -.176E+02 -.146E+04   0.697E+02 0.172E+02 0.146E+04   -.123E+01 0.335E+00 0.300E+01   -.213E-02 0.246E-02 -.193E-02
   0.295E+03 -.114E+03 0.158E+04   -.295E+03 0.114E+03 -.157E+04   0.237E+00 -.363E+00 -.416E+01   -.962E-03 -.202E-02 0.276E-02
   0.325E+03 -.150E+03 -.376E+03   -.325E+03 0.150E+03 0.377E+03   0.165E+00 0.101E+00 -.779E+00   -.549E-04 0.294E-02 0.575E-03
   -.970E+01 0.302E+01 0.197E+03   0.925E+01 -.299E+01 -.197E+03   0.541E+00 -.240E+00 0.709E-01   -.346E-03 -.299E-03 0.351E-03
   -.207E+01 -.428E+02 -.645E+03   0.183E+01 0.424E+02 0.642E+03   0.246E+00 0.439E+00 0.234E+01   -.145E-02 -.375E-03 -.462E-03
   0.170E+03 -.198E+01 0.188E+03   -.169E+03 0.190E+01 -.189E+03   -.144E+01 0.430E+00 0.648E+00   0.111E-02 -.554E-03 0.104E-02
   0.101E+03 -.843E+02 -.568E+03   -.996E+02 0.860E+02 0.564E+03   -.155E+01 -.176E+01 0.358E+01   0.768E-03 0.619E-03 -.160E-02
   0.119E+03 -.562E+02 -.110E+03   -.118E+03 0.559E+02 0.110E+03   -.111E+00 0.267E+00 -.247E+00   0.837E-03 -.119E-03 0.131E-03
   0.116E+03 -.554E+02 0.483E+03   -.115E+03 0.554E+02 -.480E+03   -.833E+00 -.188E+00 -.269E+01   -.395E-03 -.141E-03 0.664E-03
   -.908E+02 0.622E+02 -.127E+03   0.906E+02 -.618E+02 0.127E+03   0.198E+00 -.325E+00 0.325E+00   -.598E-03 0.383E-03 -.824E-03
   -.994E+02 0.596E+02 0.536E+03   0.987E+02 -.591E+02 -.533E+03   0.488E+00 -.525E+00 -.275E+01   0.356E-03 0.630E-03 -.174E-03
   0.801E+02 -.975E+01 0.177E+03   -.812E+02 0.921E+01 -.177E+03   0.953E+00 0.782E+00 -.482E+00   -.546E-04 -.143E-02 0.724E-03
   0.184E+02 -.499E+02 -.532E+03   -.195E+02 0.496E+02 0.529E+03   0.112E+01 0.289E+00 0.239E+01   -.885E-03 0.183E-03 -.113E-02
   -.479E+02 -.396E+01 -.436E+03   0.476E+02 0.368E+01 0.433E+03   0.306E+00 0.278E+00 0.268E+01   -.181E-03 0.103E-03 -.122E-02
   -.162E+03 0.653E+01 0.209E+03   0.161E+03 -.630E+01 -.210E+03   0.331E+00 -.401E+00 0.294E+00   -.238E-03 0.417E-03 -.411E-03
   -.149E+03 -.582E+01 0.494E+03   0.148E+03 0.571E+01 -.491E+03   0.676E+00 -.208E-01 -.254E+01   -.597E-03 0.779E-03 0.938E-04
   -.188E+03 -.588E+01 -.129E+03   0.187E+03 0.592E+01 0.129E+03   0.458E+00 -.457E-01 0.382E+00   -.391E-03 -.122E-02 -.222E-03
   0.823E+02 -.195E+01 0.187E+03   -.825E+02 0.240E+01 -.188E+03   0.587E-01 -.712E-01 -.202E-01   -.455E-04 0.152E-02 0.758E-03
   0.420E+02 0.424E+02 -.520E+03   -.414E+02 -.420E+02 0.518E+03   -.645E+00 -.469E+00 0.216E+01   -.365E-03 -.210E-03 -.906E-03
   0.609E+02 0.143E+01 -.148E+03   -.614E+02 -.129E+01 0.148E+03   0.530E+00 -.133E+00 0.526E+00   -.524E-03 -.167E-03 -.786E-03
   0.355E+02 -.121E+01 0.515E+03   -.362E+02 0.110E+01 -.512E+03   0.604E+00 0.614E-01 -.248E+01   -.974E-04 -.154E-03 0.637E-03
   0.130E+03 0.898E+01 0.172E+03   -.129E+03 -.917E+01 -.172E+03   -.686E+00 0.608E+00 -.329E+00   0.967E-03 0.480E-04 0.115E-02
   0.205E+02 -.221E+02 -.477E+03   -.190E+02 0.237E+02 0.475E+03   -.152E+01 -.152E+01 0.234E+01   0.955E-04 0.121E-03 -.821E-03
   0.123E+03 0.369E+01 0.199E+03   -.123E+03 -.356E+01 -.199E+03   0.119E-01 -.152E+00 -.483E+00   0.920E-03 0.512E-03 0.106E-02
   0.114E+03 0.667E+02 -.410E+03   -.115E+03 -.678E+02 0.408E+03   0.122E+01 0.113E+01 0.206E+01   0.491E-03 -.259E-03 -.996E-03
   0.125E+03 0.394E+02 0.440E+03   -.125E+03 -.391E+02 -.437E+03   0.125E+00 -.485E+00 -.281E+01   0.904E-03 0.623E-04 0.893E-03
   0.126E+03 0.303E+02 -.728E+02   -.126E+03 -.299E+02 0.724E+02   -.222E+00 -.380E+00 0.323E+00   0.709E-03 0.233E-03 0.126E-03
   -.982E+02 -.976E+00 0.502E+03   0.985E+02 0.934E+00 -.498E+03   -.491E+00 0.761E-01 -.307E+01   -.670E-03 -.637E-03 0.221E-03
   -.140E+03 0.387E+01 -.965E+02   0.139E+03 -.390E+01 0.969E+02   0.364E+00 0.353E-01 -.462E+00   -.752E-04 0.116E-02 -.670E-03
   0.129E+03 0.278E+02 0.467E+03   -.129E+03 -.281E+02 -.465E+03   -.206E+00 0.326E+00 -.251E+01   0.152E-03 0.976E-03 0.949E-03
   0.132E+03 0.413E+02 -.105E+03   -.131E+03 -.411E+02 0.104E+03   -.616E+00 -.183E+00 0.826E+00   0.233E-03 -.723E-03 -.525E-04
   0.523E+02 0.341E+02 -.477E+03   -.532E+02 -.351E+02 0.473E+03   0.917E+00 0.952E+00 0.365E+01   -.177E-03 -.254E-03 -.138E-02
   0.125E+03 -.483E+01 0.219E+03   -.125E+03 0.452E+01 -.219E+03   0.304E+00 0.132E+00 -.381E-01   -.310E-03 0.407E-04 0.116E-02
   0.299E+02 0.243E+01 0.160E+03   -.297E+02 -.241E+01 -.161E+03   -.378E-01 -.111E+00 0.306E+00   0.206E-03 -.872E-04 0.927E-03
   0.417E+01 0.169E+02 -.396E+03   -.543E+01 -.166E+02 0.394E+03   0.127E+01 -.320E+00 0.227E+01   0.659E-03 0.209E-03 -.504E-03
   -.415E+02 -.163E+00 0.455E+03   0.417E+02 0.542E+00 -.452E+03   -.674E-01 -.262E+00 -.283E+01   -.962E-03 -.515E-03 0.691E-03
   -.623E+02 -.264E+01 -.884E+02   0.622E+02 0.239E+01 0.886E+02   0.603E-01 0.256E+00 -.269E+00   0.807E-03 -.132E-03 0.183E-03
   0.502E+02 -.257E+01 0.434E+03   -.503E+02 0.191E+01 -.431E+03   0.177E-01 0.199E+00 -.303E+01   0.330E-03 0.238E-03 0.494E-03
   0.342E+02 -.626E+01 -.112E+03   -.339E+02 0.606E+01 0.113E+03   -.327E+00 0.199E+00 -.641E+00   0.956E-03 0.597E-03 0.460E-04
   -.710E+02 -.337E+01 0.196E+03   0.711E+02 0.359E+01 -.196E+03   0.623E-01 0.155E+00 0.844E-01   -.541E-04 0.816E-03 -.945E-04
   -.605E+02 -.465E+02 -.383E+03   0.610E+02 0.454E+02 0.381E+03   -.506E+00 0.106E+01 0.245E+01   0.389E-03 -.455E-03 -.765E-03
   0.393E+02 0.647E+00 0.450E+03   -.386E+02 -.505E+00 -.446E+03   -.816E+00 -.299E+00 -.321E+01   -.799E-04 -.285E-03 0.479E-03
   0.244E+02 0.189E+01 -.869E+02   -.239E+02 -.184E+01 0.874E+02   -.512E+00 -.470E-01 -.504E+00   0.743E-03 -.660E-03 0.177E-03
   -.958E+02 0.617E+00 0.169E+03   0.954E+02 -.856E+00 -.169E+03   0.475E+00 0.315E+00 0.780E-01   0.560E-04 -.986E-03 0.472E-03
   -.694E+02 -.559E+01 -.414E+03   0.685E+02 0.476E+01 0.412E+03   0.901E+00 0.837E+00 0.216E+01   0.574E-03 0.358E-03 -.462E-03
   -.263E+02 -.477E+00 -.385E+03   0.273E+02 0.984E+00 0.382E+03   -.976E+00 -.509E+00 0.279E+01   0.742E-03 -.182E-03 -.107E-02
   0.489E+02 -.544E+01 0.201E+03   -.483E+02 0.535E+01 -.201E+03   -.662E+00 0.390E+00 -.128E+00   0.599E-03 0.103E-03 0.344E-03
   -.140E+03 -.427E+02 0.532E+03   0.139E+03 0.421E+02 -.528E+03   0.857E+00 0.317E-01 -.325E+01   -.195E-03 -.516E-03 0.955E-03
   -.138E+03 -.438E+02 -.108E+03   0.138E+03 0.433E+02 0.109E+03   0.285E+00 0.520E+00 -.755E+00   -.947E-03 -.127E-03 -.419E-05
   -.154E+03 0.487E+01 0.195E+03   0.153E+03 -.492E+01 -.196E+03   0.681E+00 0.395E+00 0.689E-01   -.847E-03 -.178E-03 0.461E-04
   -.542E+02 0.351E+02 -.422E+03   0.549E+02 -.341E+02 0.420E+03   -.707E+00 -.103E+01 0.235E+01   0.199E-03 -.715E-04 -.255E-03
   0.867E+02 0.789E+02 -.745E+03   -.869E+02 -.799E+02 0.753E+03   0.225E+00 0.102E+01 -.787E+01   0.107E-02 0.525E-04 -.200E-02
   -.543E+02 0.253E+02 -.805E+03   0.532E+02 -.275E+02 0.820E+03   0.113E+01 0.225E+01 -.147E+02   0.114E-02 0.513E-03 -.171E-03
   0.105E+03 -.834E+01 -.711E+03   -.105E+03 0.796E+01 0.720E+03   0.311E+00 0.372E+00 -.818E+01   0.110E-02 0.651E-03 -.165E-02
   -.961E+02 -.241E+02 -.742E+03   0.977E+02 0.260E+02 0.751E+03   -.161E+01 -.188E+01 -.855E+01   0.820E-03 -.738E-04 -.127E-02
   0.306E+00 -.829E+00 0.480E+02   0.129E-11 0.497E-13 0.114E-12   -.335E+00 0.798E+00 -.480E+02   -.648E-02 0.237E-02 -.169E-02

 POSITION                                       TOTAL-FORCE (eV/Angst)
      8.57631      8.29685     10.39845        -0.095083     -0.158955     -0.007059
      8.57741      3.76086     15.11811         0.004004      0.000953      0.004225
      8.50525      6.09943     17.33086         0.000820     -0.003927     -0.006715
      8.51616      0.79995     12.43874        -0.030481     -0.129028     -0.248286
     13.42625      6.13033     15.23719         0.000491     -0.002647     -0.002551
     13.49094      1.15316     10.44749        -0.031019     -0.411844     -0.064825
     10.03344      3.28428     12.67411         0.006502      0.460372     -0.607308
      9.97841      8.60496     17.13800         0.004329     -0.003898     -0.000621
      7.12524      5.81577     10.15765        -0.156952     -0.456184      0.898219
      7.09496      1.26919     14.93932         0.001076     -0.002407      0.005100
      8.51222      3.28036     10.20450         0.268351      0.051710      0.739448
      8.54852      8.36239     14.85093        -0.000185     -0.003607      0.002936
     10.22263      8.06723     12.77991         0.211175      0.276901     -0.600550
     10.24966      3.87678     17.34490         0.008653     -0.005126     -0.002006
      5.42664      8.10481     10.20639         0.276281      0.096888      0.936426
      5.39962      3.51164     15.02956         0.001461      0.000473      0.004364
      8.52843      5.75423     12.65640         0.082892     -0.202004     -0.045211
      8.63829      1.51910     17.20721        -0.001815     -0.002125     -0.004118
      3.84829      7.97317     12.47259        -0.419597      0.352466     -0.447623
      3.85247      3.53755     17.19003         0.006077     -0.004324     -0.005285
      3.84418      5.64664     15.01071        -0.001065      0.001594     -0.000859
      3.90063      0.73891     10.00000         0.517651     -0.149048      0.325326
     10.17491      6.05164     14.96383         0.005459     -0.003715     -0.000025
     10.19112      1.10470     10.13736        -0.200564      0.017001      0.362850
      6.82945      7.99424     12.66670        -0.129632      0.238000     -0.358184
      6.84443      3.61716     17.31641        -0.000916     -0.004407     -0.002527
     11.48784      6.31257     17.42794        -0.005083     -0.001360     -0.002963
     11.66772      1.05372     12.57547        -0.104089     -0.164814     -0.690392
     11.73919      3.33868     10.41199        -0.291041     -0.124850      0.602054
     11.74254      8.30931     15.26400         0.000237     -0.001163      0.001550
      7.18522      3.24644     12.75390        -0.168738      0.384159     -0.500484
      7.28054      8.56603     17.23757        -0.002045     -0.003737     -0.001058
      6.85779      5.96322     14.94087        -0.001377      0.002971      0.001260
      6.87795      0.97560     10.08695        -0.075320     -0.045526      0.157538
      5.51084      5.55012     12.48419         0.006153      0.410182     -0.165975
      5.48310      1.11937     17.20699        -0.006080      0.004393     -0.001409
      3.51249      3.50019     12.83519        -0.099055     -0.026166     -0.401496
      3.29097      8.77788     17.37516         0.002866      0.000027     -0.002164
      3.46798      5.87237     10.40868         0.034016     -0.238862     -0.076668
      3.37755      1.27076     15.18246         0.001159     -0.003099      0.004751
     11.91771      8.21633     10.24534        -0.211521      0.034405      0.655899
     11.91283      3.66348     15.09401        -0.001261      0.002017      0.001655
      5.24135      3.36543     10.32679         0.179665      0.087184      0.183766
      5.17471      8.33807     15.12668        -0.001569      0.001208      0.007891
      5.31461      6.22225     17.43453        -0.000821     -0.000769     -0.009320
      5.28930      0.99064     12.60849         0.000949     -0.174666     -0.257127
      1.60538      5.84491     12.85122         0.185682     -0.089686     -0.416573
      1.37056      1.66486     17.67577         0.004569     -0.000424     -0.002798
     13.72038      5.67134     10.18293         0.214159      0.116474      0.625056
     13.69255      1.07660     15.04648        -0.000694     -0.001583     -0.002406
      1.63456      8.33987     10.36453        -0.011359     -0.466687      0.194765
      1.54020      3.78169     15.29314        -0.004567      0.001541      0.001186
     13.76831      3.16119     12.53308         0.128591      0.374916     -0.344604
     13.75010      8.33982     17.37449        -0.001267     -0.000300     -0.000793
      1.99440      3.17314     10.17666        -0.094548     -0.156012      0.717573
      1.83214      8.05221     15.02634        -0.000972      0.004012      0.004152
     13.48051      8.37930     12.86886         0.065688      0.075423     -0.353737
     13.28417      4.20673     17.83298        -0.000676      0.003699     -0.002021
      1.97361      6.02088     17.31312         0.003173     -0.002234     -0.004994
      2.02729      0.87737     12.46815         0.028581      0.301763     -0.458498
     10.07171      5.79402     10.14663         0.143774     -0.590718      0.170403
     10.15059      1.24683     14.88664        -0.001027      0.000587      0.004535
     11.97051      5.66181     12.67660        -0.245118      0.343268     -0.509001
     11.88183      1.41957     17.58133        -0.000626      0.000073     -0.000884
      5.30072      8.54232     17.55343        -0.000628     -0.004002     -0.000990
     13.46777      2.32176     18.71162        -0.000849     -0.000202     -0.003254
      3.51090      1.33570     17.62202         0.001723     -0.001201     -0.002089
     13.49311      6.33421     18.15373         0.001435     -0.003353      0.002523
    total drift:                               -0.034958     -0.028931     -0.010074

  FREE ENERGIE OF THE ION-ELECTRON SYSTEM (eV)
  free  energy   TOTEN  =      -547.32411341 eV

  energy  without entropy=     -547.32508472  energy(sigma->0) =     -547.32435623