 vasp.5.4.1 05Feb16 (build Mar 19 2020 08:54:17) complex

 executed on           IFC91_ompi date 2021.11.09  21:27:24

 INCAR:
 POTCAR:    PAW_PBE Al 04Jan2001
 POTCAR:    PAW_PBE Nb_sv 25May2007
 POTCAR:    PAW_PBE Ta 17Jan2003
 POTCAR:    PAW_PBE Ti 08Apr2002
 POTCAR:   PAW_PBE Zr 08Apr2002
 POTCAR:    PAW_PBE O 08Apr2002

 POTCAR:    PAW_PBE Al 04Jan2001
   VRHFIN =Al: s2p1

   TITEL  = PAW_PBE Al 04Jan2001
   POMASS =   26.981; ZVAL   =    3.000    mass and valenz
   ENMAX  =  240.300; ENMIN  =  180.225 eV

 POTCAR:    PAW_PBE Nb_sv 25May2007
   VRHFIN =Nb: 4p5s4d

   TITEL  = PAW_PBE Nb_sv 25May2007
   POMASS =   92.910; ZVAL   =   13.000    mass and valenz
   ENMAX  =  293.235; ENMIN  =  219.927 eV

 POTCAR:    PAW_PBE Ta 17Jan2003
   VRHFIN =Ta:  6s5d

   TITEL  = PAW_PBE Ta 17Jan2003
   POMASS =  180.948; ZVAL   =    5.000    mass and valenz
   ENMAX  =  223.667; ENMIN  =  167.750 eV

 POTCAR:    PAW_PBE Ti 08Apr2002
   VRHFIN =Ti: d3 s1

   TITEL  = PAW_PBE Ti 08Apr2002
   POMASS =   47.880; ZVAL   =    4.000    mass and valenz
   ENMAX  =  178.330; ENMIN  =  133.747 eV

 POTCAR:   PAW_PBE Zr 08Apr2002
   VRHFIN =Zr: 5s4d5p

   TITEL  = PAW_PBE Zr 08Apr2002
   POMASS =   91.224; ZVAL   =    4.000    mass and valenz
   ENMAX  =  154.632; ENMIN  =  115.974 eV
   QCUT   =   -3.371; QGAM   =    6.742    optimization parameters

   Description
     l     E      TYP  RCUT    TYP  RCUT
     2   .000     23  3.000
     2   .000     23  3.000
     0   .000     23  3.000
     0  2.000     23  3.000
     1  -.400     23  3.000
     3   .000      7   .000

 POTCAR:    PAW_PBE O 08Apr2002
   VRHFIN =O: s2p4

   TITEL  = PAW_PBE O 08Apr2002
   POMASS =   16.000; ZVAL   =    6.000    mass and valenz
   ENMAX  =  400.000; ENMIN  =  300.000 eV

 WARNING: PSMAXN for non-local potential too small
          PSMAXN should be >   12.5490833729506       NTYP=           5
  PAW_PBE Al 04Jan2001                  :
  PAW_PBE Nb_sv 25May2007               :
  PAW_PBE Ta 17Jan2003                  :
  PAW_PBE Ti 08Apr2002                  :
 PAW_PBE Zr 08Apr2002                   :
  PAW_PBE O 08Apr2002                   :

 POSCAR: Al Nb Ta Ti Zr
  positions in direct lattice
  velocities in cartesian coordinates
 exchange correlation table for  LEXCH =        8
   RHO(1)=    0.500       N(1)  =     2000
   RHO(2)=  100.500       N(2)  =     4000

 ion  position               nearest neighbor table
   1  0.623  0.867  0.376-  34 2.83  25 2.88  24 2.88   9 2.88  13 2.90   4 2.91  61 2.93  15 3.16
                            41 3.35  17 3.40
   2  0.622  0.393  0.547-  23 2.79  31 2.80  26 2.80  33 2.81  14 2.81  10 2.90   7 2.90  62 2.96
                            18 3.13   3 3.16  17 3.18  42 3.32
   3  0.616  0.633  0.625-  32 2.84  23 2.87   8 2.89  14 2.89  33 2.90  26 2.94  27 3.05  45 3.09
                             2 3.16
   4  0.618  0.084  0.450-  31 2.80  24 2.86  34 2.87  13 2.88   1 2.91  25 2.92  10 2.92   7 2.92
                            62 2.95  12 3.15  28 3.16  46 3.24
   5  0.980  0.637  0.553-  27 2.77  30 2.82  42 2.93  56 2.96  59 3.03  52 3.06  63 3.07  54 3.08
                            47 3.10  58 3.13  57 3.34
   6  0.980  0.121  0.378-  29 2.80  28 2.80  53 2.91  41 2.96  51 3.05  55 3.05  60 3.08  57 3.37

   7  0.729  0.343  0.458-  28 2.77  29 2.83  31 2.85  17 2.89   2 2.90  11 2.90   4 2.92  62 3.01
                            42 3.04  63 3.07
   8  0.722  0.893  0.621-  30 2.62  12 2.72  32 2.74  18 2.83  27 2.86   3 2.89  64 3.00  62 3.22

   9  0.517  0.608  0.367-  35 2.84  15 2.85  17 2.87   1 2.88  11 2.89  61 2.95  43 3.10
  10  0.513  0.135  0.540-  18 2.74  36 2.76  16 2.85  12 2.89   2 2.90   4 2.92  31 2.92  46 2.94
                            62 3.04  44 3.16
  11  0.618  0.343  0.369-  24 2.75  34 2.83  31 2.87   9 2.89   7 2.90  61 2.96  43 3.27
  12  0.618  0.874  0.537-  13 2.71   8 2.72  32 2.73  23 2.79  25 2.79  10 2.89  33 2.91  62 2.92
                             4 3.15  44 3.34
  13  0.742  0.843  0.462-  12 2.71  17 2.87   4 2.88  30 2.90   1 2.90  23 2.94  28 2.94  63 2.98
                            41 3.05  57 3.27  62 3.45
  14  0.744  0.393  0.629-  27 2.72   2 2.81  64 2.84  42 2.86  18 2.88   3 2.89  58 3.08
  15  0.394  0.847  0.369-  22 2.68  19 2.76  25 2.83  34 2.84   9 2.85  39 2.98   1 3.16  46 3.43

  16  0.389  0.372  0.544-  21 2.66  26 2.71  20 2.76  33 2.84  10 2.85  37 2.88  31 2.95  40 2.98
                            45 3.45
  17  0.619  0.602  0.458-  23 2.79  33 2.81  25 2.81  31 2.85   9 2.87  13 2.87   7 2.89  61 2.95
                            35 3.03   2 3.18   1 3.40  63 3.44
  18  0.620  0.150  0.623-  10 2.74  32 2.76  26 2.78  62 2.82   8 2.83  14 2.88  36 3.01   2 3.13
                            64 3.21
  19  0.279  0.834  0.451-  15 2.76  35 2.94  46 2.96  39 2.97  25 2.99  44 3.06  60 3.07  51 3.08
                            47 3.12  56 3.20  21 3.21
  20  0.279  0.366  0.628-  65 2.00  16 2.76  36 2.82  52 2.98  48 2.99  26 3.00  45 3.00  40 3.14
                            59 3.16
  21  0.279  0.600  0.534-  16 2.66  35 2.84  44 2.95  47 2.96  52 2.98  37 2.98  33 3.02  45 3.08
                            56 3.14  59 3.15  19 3.21
  22  0.283  0.077  0.361-  15 2.68  46 2.97  43 2.97  34 2.99  51 3.02  55 3.10  60 3.10
  23  0.734  0.635  0.540-  27 2.72  30 2.75   2 2.79  12 2.79  17 2.79   3 2.87  13 2.94  63 2.95
                            42 3.00
  24  0.740  0.115  0.366-  29 2.73  11 2.75  28 2.85   4 2.86   1 2.88  41 3.00
  25  0.496  0.836  0.458-  35 2.78  12 2.79  17 2.81  15 2.83   1 2.88   4 2.92  19 2.99  46 2.99
                            33 3.01  44 3.04
  26  0.496  0.378  0.626-  36 2.70  16 2.71  18 2.78   2 2.80  45 2.85   3 2.94  20 3.00
  27  0.837  0.644  0.624-  23 2.72  14 2.72   5 2.77  58 2.78   8 2.86  30 2.92   3 3.05  54 3.15
                            42 3.35
  28  0.847  0.110  0.455-   7 2.77  62 2.80   6 2.80  24 2.85  57 2.90  13 2.94  53 2.98  29 3.15
                             4 3.16  50 3.21  41 3.36
  29  0.852  0.349  0.376-  24 2.73   6 2.80   7 2.83  53 2.94  61 2.98  49 3.07  28 3.15  63 3.25

  30  0.851  0.866  0.551-   8 2.62  23 2.75   5 2.82  54 2.84  13 2.90  27 2.92  57 2.97  62 3.02
                            50 3.09  64 3.46
  31  0.522  0.339  0.461-   2 2.80   4 2.80  17 2.85   7 2.85  35 2.86  11 2.87  10 2.92  46 2.95
                            16 2.95  43 3.11
  32  0.523  0.897  0.624-  12 2.73   8 2.74  18 2.76  36 2.79   3 2.84  44 2.89  45 3.10
  33  0.498  0.624  0.539-  35 2.79   2 2.81  17 2.81  16 2.84   3 2.90  44 2.90  12 2.91  45 2.91
                            25 3.01  21 3.02
  34  0.499  0.102  0.365-  11 2.83   1 2.83  15 2.84   4 2.87  43 2.91  46 2.98  22 2.99
  35  0.400  0.580  0.451-  25 2.78  33 2.79  21 2.84   9 2.84  31 2.86  37 2.88  39 2.93  19 2.94
                            17 3.03  43 3.08
  36  0.402  0.131  0.623-  26 2.70  10 2.76  32 2.79  20 2.82  40 2.92  18 3.01  38 3.02  44 3.22

  37  0.255  0.366  0.464-  16 2.88  35 2.88  21 2.98  47 3.02  60 3.04  43 3.05  55 3.08  46 3.08
                            52 3.09  40 3.23  39 3.39
  38  0.239  0.920  0.624-  56 2.80  44 2.85  48 2.92  40 2.93  59 3.02  36 3.02  54 3.39  45 3.44

  39  0.252  0.614  0.376-  35 2.93  19 2.97  15 2.98  47 3.07  43 3.07  51 3.07  55 3.08  37 3.39
                            49 3.53
  40  0.250  0.134  0.549-  36 2.92  38 2.93  16 2.98  48 3.01  52 3.04  44 3.06  60 3.08  20 3.14
                            56 3.15  46 3.17  37 3.23  50 3.57
  41  0.865  0.859  0.370-   6 2.96  24 3.00  61 3.05  13 3.05  57 3.06  49 3.12   1 3.35  28 3.36
                            51 3.49  63 3.53
  42  0.863  0.382  0.544-  14 2.86   5 2.93  58 2.99  23 3.00  62 3.01   7 3.04  50 3.09  63 3.11
                            53 3.18   2 3.32  27 3.35  64 3.36  52 3.58
  43  0.381  0.352  0.373-  34 2.91  22 2.97  37 3.05  39 3.07  35 3.08   9 3.10  31 3.11  55 3.26
                            11 3.27  46 3.29
  44  0.377  0.871  0.550-  38 2.85  32 2.89  33 2.90  21 2.95  25 3.04  40 3.06  19 3.06  10 3.16
                            45 3.17  36 3.22  12 3.34  56 3.36  46 3.42
  45  0.392  0.635  0.630-  65 2.14  26 2.85  33 2.91  20 3.00  21 3.08   3 3.09  32 3.10  44 3.17
                            59 3.39  38 3.44  16 3.45
  46  0.384  0.104  0.456-  10 2.94  31 2.95  19 2.96  22 2.97  34 2.98  25 2.99  37 3.08  40 3.17
                             4 3.24  60 3.27  43 3.29  44 3.42  15 3.43
  47  0.117  0.611  0.465-  21 2.96  37 3.02  39 3.07   5 3.10  19 3.12  56 3.13  53 3.14  49 3.15
                            57 3.17  52 3.23  63 3.42  51 3.52  55 3.80
  48  0.113  0.164  0.633-  38 2.92  50 2.97  20 2.99  40 3.01  52 3.09  54 3.16  58 3.21  64 3.60

  49  0.996  0.593  0.368-  63 3.05  29 3.07  41 3.12  47 3.15  51 3.16  55 3.23  53 3.44  39 3.53
                            61 3.65  57 3.82
  50  0.992  0.117  0.546-  48 2.97  64 3.08  30 3.09  42 3.09  54 3.14  52 3.20  57 3.21  56 3.21
                            28 3.21  53 3.28  60 3.40  62 3.56  40 3.57
  51  0.119  0.872  0.375-  60 3.00  22 3.02   6 3.05  39 3.07  19 3.08  57 3.16  49 3.16  41 3.49
                            47 3.52
  52  0.123  0.393  0.554-  21 2.98  20 2.98  40 3.04   5 3.06  59 3.07  37 3.09  48 3.09  50 3.20
                            58 3.20  47 3.23  53 3.31  42 3.58
  53  1.000  0.331  0.453-   6 2.91  29 2.94  28 2.98  60 3.06  63 3.08  55 3.09  47 3.14  42 3.18
                            50 3.28  52 3.31  49 3.44
  54  0.994  0.883  0.625-  30 2.84  56 3.04   5 3.08  50 3.14  27 3.15  64 3.16  59 3.16  48 3.16
                            38 3.39
  55  0.145  0.332  0.368-   6 3.05  37 3.08  39 3.08  53 3.09  22 3.10  49 3.23  60 3.24  43 3.26
                            47 3.80
  56  0.134  0.852  0.541-  38 2.80   5 2.96  57 3.00  54 3.04  47 3.13  21 3.14  59 3.14  40 3.15
                            19 3.20  50 3.21  44 3.36  60 3.40
  57  0.979  0.876  0.465-  28 2.90  30 2.97  56 3.00  41 3.06  63 3.11  60 3.13  51 3.16  47 3.17
                            50 3.21  13 3.27   5 3.34   6 3.37  49 3.82
  58  0.966  0.423  0.638-  27 2.78  42 2.99  14 3.08  64 3.11   5 3.13  52 3.20  48 3.21  59 3.22

  59  0.145  0.635  0.626-  65 2.10  38 3.02   5 3.03  52 3.07  56 3.14  21 3.15  54 3.16  20 3.16
                            58 3.22  45 3.39
  60  0.147  0.092  0.451-  51 3.00  37 3.04  53 3.06  19 3.07   6 3.08  40 3.08  22 3.10  57 3.13
                            55 3.24  46 3.27  50 3.40  56 3.40
  61  0.731  0.606  0.367-   1 2.93  17 2.95   9 2.95  11 2.96  29 2.98  41 3.05  63 3.17  49 3.65

  62  0.734  0.129  0.538-  28 2.80  18 2.82  12 2.92   4 2.95   2 2.96  42 3.01   7 3.01  30 3.02
                            10 3.04  64 3.08   8 3.22  13 3.45  50 3.56
  63  0.869  0.592  0.458-  23 2.95  13 2.98  49 3.05   7 3.07   5 3.07  53 3.08  42 3.11  57 3.11
                            61 3.17  29 3.25  47 3.42  17 3.44  41 3.53
  64  0.853  0.142  0.632-  14 2.84   8 3.00  50 3.08  62 3.08  58 3.11  54 3.16  18 3.21  42 3.36
                            30 3.46  48 3.60
  65  0.264  0.548  0.663-  20 2.00  59 2.10  45 2.14

[...]
    203      -0.0880      0.00000
    204      -0.0716      0.00000
    205      -0.0484      0.00000
    206      -0.0209      0.00000
    207       0.0017      0.00000
    208       0.0584      0.00000
    209       0.0705      0.00000
    210       0.1059      0.00000
    211       0.1517      0.00000
    212       0.2115      0.00000

 soft charge-density along one line, spin component           1
         0         1         2         3         4         5         6         7         8         9
 total charge-density along one line

------------------------ aborting loop because EDIFF is reached ----------------------------------------

  FORCE on cell =-STRESS in cart. coord.  units (eV):
  Direction    XX          YY          ZZ          XY          YZ          ZX
  Alpha Z   518.63607   518.63607   518.63607
  Ewald   77245.35465 82407.08661-88408.37325  -832.51074   114.92005   495.91705
  Hartree 81729.01397 86644.30308-78150.34078  -663.58889    73.65105   463.80649
  E(xc)   -1470.63156 -1473.34471 -1461.55457     0.00298    -0.72106    -0.47122
  Local  ************************162918.90897  1493.81458  -184.47208  -959.56704
  n-local   -43.08700   -43.53879   -74.95231     7.68869     0.54710    -0.04124
  augment   442.90019   443.78459   439.00665    -1.13594     0.23630     0.22499
  Kinetic  4197.49112  4183.22258  4202.71819    -6.07917     1.17904    -1.11920
  Fock        0.00000     0.00000     0.00000     0.00000     0.00000     0.00000
  Total     -36.46144   -29.85800   -15.95102    -1.80849     5.34040    -1.25016
  in kB     -16.03297   -13.12928    -7.01404    -0.79524     2.34830    -0.54973

 VOLUME and BASIS-vectors are now :
  energy-cutoff  :      600.00
  volume of cell :     3643.60
      direct lattice vectors                 reciprocal lattice vectors
    13.771350861  0.000000000  0.000000000     0.072614518  0.000000000  0.000000000
     0.000000000  9.564481735  0.000000000     0.000000000  0.104553496  0.000000000
     0.000000000  0.000000000 27.662570434     0.000000000  0.000000000  0.036149931

  length of vectors
    13.771350861  9.564481735 27.662570434     0.072614518  0.104553496  0.036149931

 FORCES acting on ions
    electron-ion (+dipol)            ewald-force                    non-local-force                 convergence-correction
   -.467E+02 -.340E+02 0.374E+03   0.465E+02 0.337E+02 -.373E+03   0.114E+00 0.893E-01 -.783E+00   0.817E-03 0.463E-04 0.196E-02
   -.172E+02 -.348E+02 -.142E+03   0.173E+02 0.347E+02 0.141E+03   -.951E-01 0.812E-01 0.253E+00   0.343E-03 0.717E-03 0.639E-03
   0.320E+02 0.166E+02 -.373E+03   -.323E+02 -.162E+02 0.372E+03   0.265E+00 -.397E+00 0.106E+01   0.105E-02 -.254E-03 -.444E-03
   0.223E+01 0.591E+01 0.188E+03   -.227E+01 -.579E+01 -.187E+03   0.373E-02 -.274E+00 -.884E+00   0.293E-04 0.740E-03 0.220E-02
   -.606E+02 0.440E+01 -.120E+03   0.603E+02 -.405E+01 0.122E+03   0.335E+00 -.350E+00 -.114E+01   -.917E-03 -.149E-02 0.221E-03
   -.465E+02 0.476E+01 0.317E+03   0.459E+02 -.416E+01 -.314E+03   0.654E+00 -.102E+01 -.228E+01   0.783E-03 0.196E-03 0.146E-02
   -.377E+03 -.748E+01 0.419E+03   0.377E+03 0.814E+01 -.421E+03   0.989E-01 -.324E+00 0.920E+00   0.709E-03 0.669E-02 0.608E-02
   -.279E+03 0.313E+02 -.166E+04   0.278E+03 -.300E+02 0.166E+04   0.120E+01 -.120E+01 0.412E+01   -.454E-02 -.442E-02 0.275E-02
   0.101E+03 -.936E+01 0.160E+04   -.101E+03 0.827E+01 -.160E+04   -.552E+00 0.618E+00 -.428E+01   -.278E-02 -.822E-03 0.121E-01
   0.212E+03 0.159E+02 -.439E+03   -.212E+03 -.158E+02 0.440E+03   0.173E+00 -.122E+00 -.130E+01   -.359E-02 0.145E-02 0.496E-02
   -.536E+02 0.138E+03 0.168E+04   0.544E+02 -.137E+03 -.167E+04   -.478E+00 -.411E+00 -.275E+01   0.667E-02 -.142E-03 0.119E-01
   0.117E+03 0.120E+03 -.442E+03   -.116E+03 -.120E+03 0.442E+03   -.696E+00 0.158E+00 -.239E+00   -.158E-02 -.374E-02 0.702E-02
   -.417E+03 -.117E+00 0.685E+03   0.418E+03 -.108E+01 -.684E+03   -.681E+00 0.147E+01 -.158E+01   -.139E-03 -.653E-02 0.580E-02
   -.166E+03 -.308E+02 -.152E+04   0.168E+03 0.304E+02 0.152E+04   -.145E+01 0.381E+00 0.322E+01   0.229E-02 0.554E-02 0.107E-03
   0.298E+03 -.117E+03 0.151E+04   -.298E+03 0.117E+03 -.150E+04   0.271E+00 -.386E+00 -.421E+01   -.879E-02 0.319E-02 0.905E-02
   0.352E+03 -.942E+02 -.471E+03   -.352E+03 0.939E+02 0.472E+03   0.187E+00 0.263E+00 -.826E+00   0.324E-02 -.189E-02 0.110E-02
   -.126E+02 0.198E+01 0.166E+03   0.121E+02 -.188E+01 -.166E+03   0.552E+00 -.254E+00 0.115E+00   0.821E-03 -.166E-02 0.492E-02
   0.378E+01 -.317E+02 -.660E+03   -.431E+01 0.314E+02 0.658E+03   0.525E+00 0.297E+00 0.214E+01   -.243E-03 0.434E-03 0.531E-03
   0.171E+03 -.959E+01 0.149E+03   -.170E+03 0.940E+01 -.150E+03   -.115E+01 0.646E+00 0.715E+00   -.287E-03 0.813E-03 0.149E-02
   0.115E+03 0.756E+02 -.558E+03   -.114E+03 -.753E+02 0.555E+03   -.107E+01 -.320E+00 0.319E+01   0.168E-02 -.665E-03 -.160E-02
   0.127E+03 -.611E+02 -.107E+03   -.126E+03 0.610E+02 0.107E+03   -.219E+00 0.535E-01 0.393E+00   0.111E-02 -.663E-03 -.473E-03
   0.117E+03 -.552E+02 0.461E+03   -.115E+03 0.553E+02 -.458E+03   -.812E+00 -.252E+00 -.262E+01   -.142E-02 -.473E-03 0.298E-02
   -.101E+03 0.668E+02 -.158E+03   0.101E+03 -.663E+02 0.157E+03   0.828E-01 -.460E+00 0.551E+00   -.980E-04 -.147E-02 0.175E-02
   -.100E+03 0.599E+02 0.515E+03   0.996E+02 -.593E+02 -.512E+03   0.435E+00 -.486E+00 -.277E+01   0.129E-02 0.796E-03 0.170E-02
   0.826E+02 -.139E+02 0.148E+03   -.835E+02 0.134E+02 -.148E+03   0.783E+00 0.779E+00 -.372E+00   -.102E-02 -.758E-03 0.313E-02
   0.151E+02 -.330E+02 -.531E+03   -.156E+02 0.327E+02 0.529E+03   0.504E+00 0.306E+00 0.226E+01   0.924E-03 -.174E-03 -.951E-03
   -.126E+03 -.669E+01 -.446E+03   0.126E+03 0.680E+01 0.444E+03   0.220E+00 -.115E+00 0.230E+01   -.133E-02 -.210E-02 0.122E-03
   -.165E+03 0.745E+01 0.178E+03   0.165E+03 -.718E+01 -.179E+03   0.389E+00 -.411E+00 0.311E+00   0.863E-03 0.164E-02 0.129E-02
   -.150E+03 -.555E+01 0.471E+03   0.149E+03 0.553E+01 -.468E+03   0.675E+00 -.914E-01 -.260E+01   0.709E-03 0.363E-03 0.314E-02
   -.200E+03 -.199E+01 -.168E+03   0.199E+03 0.219E+01 0.167E+03   0.696E+00 -.201E+00 0.375E+00   -.827E-03 -.167E-02 0.121E-02
   0.838E+02 0.615E+00 0.160E+03   -.841E+02 -.175E+00 -.160E+03   0.293E-01 -.107E+00 -.878E-01   -.112E-03 0.105E-02 0.311E-02
   0.124E+03 0.350E+02 -.538E+03   -.123E+03 -.349E+02 0.536E+03   -.573E+00 -.504E-01 0.235E+01   0.650E-03 0.102E-03 -.566E-03
   0.632E+02 -.811E+01 -.168E+03   -.635E+02 0.817E+01 0.168E+03   0.345E+00 -.528E-01 0.535E+00   0.549E-03 -.551E-03 0.579E-03
   0.360E+02 -.827E+00 0.494E+03   -.366E+02 0.780E+00 -.492E+03   0.613E+00 0.299E-01 -.249E+01   -.113E-02 -.606E-04 0.269E-02
   0.129E+03 0.800E+01 0.150E+03   -.128E+03 -.831E+01 -.150E+03   -.755E+00 0.664E+00 -.439E+00   0.619E-05 -.650E-03 0.325E-02
   0.106E+03 0.454E+02 -.514E+03   -.106E+03 -.446E+02 0.511E+03   -.292E+00 -.760E+00 0.245E+01   0.117E-02 0.462E-04 -.731E-03
   0.127E+03 0.111E+02 0.171E+03   -.127E+03 -.107E+02 -.171E+03   -.586E-01 -.463E+00 -.460E+00   -.735E-04 -.599E-03 0.151E-02
   0.523E+02 0.634E+00 -.424E+03   -.530E+02 -.432E+00 0.422E+03   0.703E+00 -.209E+00 0.233E+01   0.147E-02 0.366E-03 -.661E-03
   0.126E+03 0.390E+02 0.419E+03   -.126E+03 -.387E+02 -.416E+03   0.191E+00 -.481E+00 -.270E+01   -.751E-03 0.395E-03 0.306E-02
   0.127E+03 0.440E+02 -.152E+03   -.127E+03 -.435E+02 0.153E+03   -.197E+00 -.498E+00 -.105E+01   0.936E-03 0.625E-03 -.571E-03
   -.991E+02 -.111E+01 0.479E+03   0.994E+02 0.110E+01 -.476E+03   -.473E+00 0.180E-01 -.311E+01   0.134E-02 -.303E-03 0.201E-02
   -.152E+03 -.121E+00 -.135E+03   0.152E+03 0.419E-01 0.135E+03   0.543E+00 0.765E-01 -.701E+00   -.153E-03 0.130E-02 0.966E-03
   0.130E+03 0.289E+02 0.446E+03   -.130E+03 -.291E+02 -.444E+03   -.225E+00 0.336E+00 -.246E+01   -.158E-02 -.327E-03 0.335E-02
   0.138E+03 0.215E+02 -.192E+03   -.138E+03 -.211E+02 0.192E+03   -.702E+00 -.367E+00 0.222E+00   0.109E-02 0.376E-03 0.552E-03
   0.138E+02 -.613E+02 -.456E+03   -.147E+02 0.605E+02 0.453E+03   0.816E+00 0.864E+00 0.295E+01   0.164E-02 0.668E-04 -.878E-03
   0.129E+03 -.245E+01 0.185E+03   -.129E+03 0.223E+01 -.186E+03   0.363E+00 0.104E+00 0.139E+00   -.154E-02 0.378E-03 0.255E-02
   0.368E+02 0.174E+01 0.128E+03   -.367E+02 -.162E+01 -.129E+03   -.127E+00 -.226E+00 0.268E+00   -.112E-02 -.669E-03 0.937E-03
   0.215E+02 0.156E+02 -.428E+03   -.213E+02 -.156E+02 0.424E+03   -.208E+00 -.826E-01 0.321E+01   -.173E-03 0.808E-03 -.115E-02
   -.415E+02 -.279E+00 0.433E+03   0.417E+02 0.634E+00 -.429E+03   -.446E-01 -.246E+00 -.277E+01   -.102E-03 0.188E-05 0.313E-02
   -.713E+02 -.465E+01 -.141E+03   0.712E+02 0.417E+01 0.141E+03   0.127E+00 0.482E+00 -.576E-01   0.500E-03 0.173E-02 -.106E-03
   0.509E+02 -.321E+01 0.411E+03   -.509E+02 0.257E+01 -.408E+03   -.307E-01 0.146E+00 -.312E+01   -.149E-03 0.538E-03 0.253E-02
   0.588E+02 0.388E+01 -.155E+03   -.583E+02 -.419E+01 0.155E+03   -.446E+00 0.302E+00 -.523E+00   -.123E-02 -.374E-03 -.833E-03
   -.724E+02 -.257E+01 0.162E+03   0.724E+02 0.281E+01 -.163E+03   0.123E+00 0.184E+00 0.184E+00   0.330E-03 0.996E-03 0.184E-02
   -.641E+02 -.218E+01 -.418E+03   0.645E+02 0.237E+01 0.415E+03   -.430E+00 -.189E+00 0.304E+01   -.965E-03 -.893E-03 -.287E-03
   0.402E+02 0.136E+01 0.428E+03   -.395E+02 -.122E+01 -.424E+03   -.851E+00 -.294E+00 -.318E+01   -.578E-03 -.737E-03 0.308E-02
   0.282E+02 -.566E+01 -.126E+03   -.277E+02 0.575E+01 0.127E+03   -.520E+00 -.935E-01 -.501E+00   -.113E-06 0.118E-03 -.764E-03
   -.967E+02 0.250E+00 0.133E+03   0.963E+02 -.432E+00 -.134E+03   0.494E+00 0.191E+00 0.191E+00   0.111E-02 -.970E-03 0.257E-03
   -.854E+02 0.124E+01 -.446E+03   0.843E+02 -.161E+01 0.442E+03   0.104E+01 0.357E+00 0.363E+01   -.242E-02 0.871E-03 -.149E-02
   0.791E+02 -.396E+02 -.379E+03   -.778E+02 0.390E+02 0.377E+03   -.131E+01 0.556E+00 0.199E+01   -.760E-03 -.621E-03 -.590E-03
   0.496E+02 -.566E+01 0.165E+03   -.490E+02 0.542E+01 -.166E+03   -.656E+00 0.621E+00 0.853E-01   0.230E-03 0.453E-03 0.108E-02
   -.141E+03 -.430E+02 0.511E+03   0.140E+03 0.423E+02 -.507E+03   0.817E+00 0.606E-01 -.323E+01   0.193E-02 -.654E-03 0.316E-02
   -.143E+03 -.407E+02 -.137E+03   0.143E+03 0.402E+02 0.138E+03   0.188E+00 0.441E+00 -.722E+00   -.758E-03 0.152E-02 0.161E-02
   -.158E+03 0.401E+01 0.162E+03   0.158E+03 -.402E+01 -.163E+03   0.733E+00 0.447E+00 0.321E+00   0.360E-03 -.131E-02 0.197E-02
   -.131E+03 0.951E+01 -.462E+03   0.130E+03 -.907E+01 0.459E+03   0.489E+00 -.452E+00 0.319E+01   -.124E-02 0.177E-02 -.336E-03
   0.777E+02 -.477E+02 -.800E+03   -.788E+02 0.519E+02 0.816E+03   0.111E+01 -.419E+01 -.157E+02   0.166E-02 -.325E-03 -.115E-02
   -.179E+01 0.482E+01 0.228E+02   0.398E-12 -.220E-12 -.227E-12   0.179E+01 -.481E+01 -.229E+02   -.410E-02 -.184E-02 0.119E+00

 POSITION                                       TOTAL-FORCE (eV/Angst)
      8.57631      8.29685     10.39845        -0.087325     -0.160108      0.021455
      8.56741      3.76058     15.12866        -0.000840     -0.001225      0.000023
      8.48292      6.05161     17.29628         0.002267     -0.005440      0.000981
      8.51616      0.79995     12.43874        -0.031618     -0.157495     -0.313404
     13.49833      6.09724     15.30716         0.001957     -0.002987      0.000529
     13.49094      1.15316     10.44749        -0.021437     -0.412884     -0.067062
     10.03344      3.28428     12.67411        -0.080324      0.339744     -0.580259
      9.94488      8.53941     17.16644         0.003795     -0.000733      0.001103
      7.12524      5.81577     10.15765        -0.147729     -0.480116      0.866080
      7.06840      1.29220     14.92425         0.002466     -0.002370     -0.000749
      8.51222      3.28036     10.20450         0.261989      0.061690      0.744637
      8.51151      8.35864     14.86744        -0.001406      0.000742     -0.000575
     10.22263      8.06723     12.77991         0.244753      0.272481     -0.495660
     10.24171      3.76004     17.38790         0.001504     -0.000295      0.001079
      5.42664      8.10481     10.20639         0.312339      0.050437      0.921725
      5.35444      3.56205     15.04737        -0.000962      0.001360     -0.000087
      8.52843      5.75423     12.65640         0.077649     -0.154477     -0.114142
      8.54500      1.43453     17.23023        -0.002676     -0.002383      0.000452
      3.84829      7.97317     12.47259        -0.395771      0.453060     -0.278042
      3.84126      3.50324     17.36049        -0.000852     -0.000231     -0.003366
      3.84467      5.73565     14.77645         0.003505     -0.002679      0.001056
      3.90063      0.73891     10.00000         0.491425     -0.170935      0.398979
     10.11447      6.07454     14.93507         0.000122     -0.001361     -0.000151
     10.19112      1.10470     10.13736        -0.231560      0.052312      0.363163
      6.82945      7.99424     12.66670        -0.096090      0.258923     -0.374551
      6.83595      3.61969     17.32002         0.002480     -0.004580      0.000056
     11.52971      6.15680     17.25073        -0.000847     -0.003319      0.002098
     11.66772      1.05372     12.57547        -0.031818     -0.145574     -0.667210
     11.73919      3.33868     10.41199        -0.273974     -0.110366      0.558338
     11.71908      8.28032     15.25341         0.002342     -0.004816      0.000028
      7.18522      3.24644     12.75390        -0.227785      0.334233     -0.473304
      7.20364      8.58326     17.25791        -0.000054     -0.004369      0.001795
      6.85258      5.97056     14.89920         0.002326      0.000806     -0.000655
      6.87795      0.97560     10.08695        -0.039291     -0.017353      0.160466
      5.51084      5.55012     12.48419        -0.043378      0.346441     -0.476743
      5.53685      1.25171     17.22403        -0.000790     -0.003813      0.000145
      3.51249      3.50019     12.83519        -0.111457     -0.025790     -0.373389
      3.29172      8.79813     17.27520         0.005803     -0.006263      0.002510
      3.46798      5.87237     10.40868         0.095000     -0.217943     -0.045041
      3.44853      1.27729     15.17627         0.000187     -0.003980     -0.000872
     11.91771      8.21633     10.24534        -0.140323      0.009594      0.664047
     11.88951      3.65615     15.05014         0.000825     -0.000749     -0.001147
      5.24135      3.36543     10.32679         0.173407      0.071706      0.151232
      5.18927      8.32864     15.20372         0.001034      0.000137     -0.001281
      5.39282      6.07399     17.41841        -0.002710     -0.002748     -0.002337
      5.28930      0.99064     12.60849         0.154038     -0.108991     -0.384734
      1.60538      5.84491     12.85122         0.043282     -0.110361     -0.470881
      1.56052      1.57042     17.49944         0.003263     -0.003793      0.001574
     13.72038      5.67134     10.18293         0.187427      0.108492      0.656160
     13.65778      1.11814     15.09403         0.001393     -0.004169      0.000619
      1.63456      8.33987     10.36453        -0.021073     -0.490560      0.141127
      1.68891      3.75452     15.31631        -0.001269     -0.003499     -0.002114
     13.76831      3.16119     12.53308         0.106833      0.422690     -0.256509
     13.69149      8.44476     17.29682        -0.000420     -0.002714      0.000989
      1.99440      3.17314     10.17666        -0.139941     -0.157202      0.680286
      1.84370      8.14431     14.96449        -0.000279     -0.003518      0.001080
     13.48051      8.37930     12.86886         0.047296      0.007650     -0.318072
     13.29625      4.04481     17.66116         0.001172     -0.004569     -0.000057
      1.99976      6.06984     17.31318         0.001027     -0.001821      0.000565
      2.02729      0.87737     12.46815        -0.034671      0.387723     -0.373990
     10.07171      5.79402     10.14663         0.117420     -0.597127      0.185180
     10.10484      1.23736     14.88579         0.000383     -0.004498      0.000392
     11.97051      5.66181     12.67660        -0.187851      0.428193     -0.451205
     11.74126      1.35432     17.49442         0.000138     -0.002992     -0.002512
      3.64141      5.24079     18.33030         0.005674     -0.005215      0.000154
    total drift:                                0.000761      0.000328      0.000538

  FREE ENERGIE OF THE ION-ELECTRON SYSTEM (eV)
  free  energy   TOTEN  =      -514.87251300 eV

  energy  without entropy=     -514.87712533  energy(sigma->0) =     -514.87366608

 reached required accuracy - stopping structural energy minimisation