 vasp.5.4.1 05Feb16 (build Mar 19 2020 08:54:17) complex

 executed on           IFC91_ompi date 2021.11.10  10:01:38

 INCAR:
 POTCAR:    PAW_PBE Al 04Jan2001
 POTCAR:    PAW_PBE Nb_sv 25May2007
 POTCAR:    PAW_PBE Ta 17Jan2003
 POTCAR:    PAW_PBE Ti 08Apr2002
 POTCAR:   PAW_PBE Zr 08Apr2002
 POTCAR:    PAW_PBE O 08Apr2002

 POTCAR:    PAW_PBE Al 04Jan2001
   VRHFIN =Al: s2p1

   TITEL  = PAW_PBE Al 04Jan2001
   POMASS =   26.981; ZVAL   =    3.000    mass and valenz
   ENMAX  =  240.300; ENMIN  =  180.225 eV

 POTCAR:    PAW_PBE Nb_sv 25May2007
   VRHFIN =Nb: 4p5s4d

   TITEL  = PAW_PBE Nb_sv 25May2007
   POMASS =   92.910; ZVAL   =   13.000    mass and valenz
   ENMAX  =  293.235; ENMIN  =  219.927 eV

 POTCAR:    PAW_PBE Ta 17Jan2003
   VRHFIN =Ta:  6s5d

   TITEL  = PAW_PBE Ta 17Jan2003
   POMASS =  180.948; ZVAL   =    5.000    mass and valenz
   ENMAX  =  223.667; ENMIN  =  167.750 eV

 POTCAR:    PAW_PBE Ti 08Apr2002
   VRHFIN =Ti: d3 s1

   TITEL  = PAW_PBE Ti 08Apr2002
   POMASS =   47.880; ZVAL   =    4.000    mass and valenz
   ENMAX  =  178.330; ENMIN  =  133.747 eV

 POTCAR:   PAW_PBE Zr 08Apr2002
   VRHFIN =Zr: 5s4d5p

   TITEL  = PAW_PBE Zr 08Apr2002
   POMASS =   91.224; ZVAL   =    4.000    mass and valenz
   ENMAX  =  154.632; ENMIN  =  115.974 eV
   QCUT   =   -3.371; QGAM   =    6.742    optimization parameters

   Description
     l     E      TYP  RCUT    TYP  RCUT
     2   .000     23  3.000
     2   .000     23  3.000
     0   .000     23  3.000
     0  2.000     23  3.000
     1  -.400     23  3.000
     3   .000      7   .000

 POTCAR:    PAW_PBE O 08Apr2002
   VRHFIN =O: s2p4

   TITEL  = PAW_PBE O 08Apr2002
   POMASS =   16.000; ZVAL   =    6.000    mass and valenz
   ENMAX  =  400.000; ENMIN  =  300.000 eV

 WARNING: PSMAXN for non-local potential too small
          PSMAXN should be >   12.5490833729506       NTYP=           5
  PAW_PBE Al 04Jan2001                  :
  PAW_PBE Nb_sv 25May2007               :
  PAW_PBE Ta 17Jan2003                  :
  PAW_PBE Ti 08Apr2002                  :
 PAW_PBE Zr 08Apr2002                   :
  PAW_PBE O 08Apr2002                   :

 POSCAR: Al Nb Ta Ti Zr
  positions in direct lattice
  velocities in cartesian coordinates
 exchange correlation table for  LEXCH =        8
   RHO(1)=    0.500       N(1)  =     2000
   RHO(2)=  100.500       N(2)  =     4000

 ion  position               nearest neighbor table
   1  0.623  0.867  0.376-  34 2.83  25 2.88  24 2.88   9 2.88  13 2.90   4 2.91  61 2.93  15 3.16
                            41 3.35  17 3.40
   2  0.621  0.390  0.548-  33 2.80  23 2.80  31 2.81  14 2.82  26 2.82  10 2.90   7 2.92  62 2.96
                            18 3.10  16 3.11   3 3.14  17 3.21  42 3.37
   3  0.618  0.630  0.625-  32 2.79  23 2.86  14 2.87   8 2.88  33 2.89  26 2.93  27 3.06   2 3.14
                            45 3.23
   4  0.618  0.084  0.450-  31 2.80  24 2.86  34 2.87  10 2.87  13 2.88   1 2.91  25 2.92   7 2.92
                            62 2.95  28 3.16  12 3.17  46 3.24
   5  0.983  0.640  0.553-  27 2.77  30 2.81  59 2.92  42 2.94  56 2.94  52 3.07  47 3.08  63 3.08
                            54 3.10  58 3.15  57 3.31
   6  0.980  0.121  0.378-  29 2.80  28 2.80  53 2.91  41 2.96  51 3.05  55 3.05  60 3.08  57 3.37

   7  0.729  0.343  0.458-  28 2.77  29 2.83  31 2.85  17 2.89  11 2.90   2 2.92   4 2.92  62 3.01
                            42 3.05  63 3.07
   8  0.726  0.888  0.621-  30 2.64  32 2.73  12 2.74  27 2.79  18 2.87   3 2.88  64 3.04  62 3.26

   9  0.517  0.608  0.367-  35 2.84  15 2.85  17 2.87   1 2.88  11 2.89  61 2.95  43 3.10
  10  0.518  0.128  0.539-  18 2.75  16 2.79  36 2.80  12 2.84   4 2.87   2 2.90  46 2.96  31 2.96
                            62 3.00  44 3.13
  11  0.618  0.343  0.369-  24 2.75  34 2.83  31 2.87   9 2.89   7 2.90  61 2.96  43 3.27
  12  0.620  0.870  0.537-  13 2.70  32 2.71   8 2.74  23 2.78  25 2.80  10 2.84  33 2.91  62 2.94
                             4 3.17  44 3.31
  13  0.742  0.843  0.462-  12 2.70  30 2.83  17 2.87   4 2.88   1 2.90  28 2.94  23 2.95  63 2.98
                            41 3.05  57 3.27  62 3.44
  14  0.746  0.395  0.629-  27 2.74  64 2.80   2 2.82   3 2.87  42 2.88  18 2.88  58 3.06
  15  0.394  0.847  0.369-  22 2.68  19 2.76  25 2.83  34 2.84   9 2.85  39 2.98   1 3.16  46 3.43

  16  0.397  0.363  0.540-  20 2.67  10 2.79  31 2.79  26 2.81  21 2.82  33 2.84  37 2.88  40 3.01
                             2 3.11  46 3.41
  17  0.619  0.602  0.458-  23 2.78  25 2.81  33 2.81  31 2.85   9 2.87  13 2.87   7 2.89  61 2.95
                            35 3.03   2 3.21   1 3.40  63 3.44
  18  0.625  0.150  0.623-  10 2.75  62 2.81  26 2.81  32 2.81   8 2.87  14 2.88  36 2.89   2 3.10
                            64 3.15
  19  0.279  0.834  0.451-  15 2.76  35 2.94  46 2.96  39 2.97  25 2.99  44 3.06  60 3.07  51 3.08
                            47 3.12  21 3.22  56 3.24
  20  0.296  0.341  0.622-  65 2.05  16 2.67  36 2.67  26 2.79  40 2.91  48 3.00  52 3.04  45 3.10

  21  0.278  0.602  0.535-  65 2.10  16 2.82  35 2.87  45 2.89  52 2.93  44 2.93  47 2.97  37 3.02
                            33 3.04  56 3.12  19 3.22  59 3.36
  22  0.283  0.077  0.361-  15 2.68  46 2.97  43 2.97  34 2.99  51 3.02  55 3.10  60 3.10
  23  0.735  0.632  0.539-  27 2.74  30 2.74  12 2.78  17 2.78   2 2.80   3 2.86  63 2.93  13 2.95
                            42 2.98
  24  0.740  0.115  0.366-  29 2.73  11 2.75  28 2.85   4 2.86   1 2.88  41 3.00
  25  0.496  0.836  0.458-  35 2.78  12 2.80  17 2.81  15 2.83   1 2.88   4 2.92  19 2.99  46 2.99
                            44 2.99  33 3.04
  26  0.497  0.378  0.629-  36 2.71  20 2.79  18 2.81  16 2.81   2 2.82   3 2.93  45 2.96
  27  0.840  0.647  0.624-  14 2.74  23 2.74  58 2.76   5 2.77   8 2.79  30 2.93   3 3.06  54 3.09
                            42 3.37
  28  0.847  0.110  0.455-   7 2.77  62 2.78   6 2.80  24 2.85  57 2.90  13 2.94  53 2.98  29 3.15
                             4 3.16  50 3.22  41 3.36
  29  0.852  0.349  0.376-  24 2.73   6 2.80   7 2.83  53 2.94  61 2.98  49 3.07  28 3.15  63 3.25

  30  0.850  0.864  0.549-   8 2.64  23 2.74  54 2.79   5 2.81  13 2.83  57 2.92  27 2.93  62 3.01
                            50 3.16
  31  0.522  0.339  0.461-  16 2.79   4 2.80   2 2.81  17 2.85   7 2.85  35 2.86  11 2.87  46 2.95
                            10 2.96  43 3.11
  32  0.527  0.891  0.624-  36 2.68  12 2.71   8 2.73   3 2.79  18 2.81  44 2.91  45 3.12
  33  0.498  0.621  0.539-   2 2.80  35 2.81  17 2.81  16 2.84  45 2.86  44 2.88   3 2.89  12 2.91
                            21 3.04  25 3.04
  34  0.499  0.102  0.365-  11 2.83   1 2.83  15 2.84   4 2.87  43 2.91  46 2.98  22 2.99
  35  0.400  0.580  0.451-  25 2.78  33 2.81   9 2.84  31 2.86  21 2.87  37 2.88  39 2.93  19 2.94
                            17 3.03  43 3.08
  36  0.416  0.120  0.627-  20 2.67  32 2.68  26 2.71  10 2.80  18 2.89  38 3.04  40 3.10  44 3.27

  37  0.255  0.366  0.464-  16 2.88  35 2.88  21 3.02  47 3.02  60 3.04  43 3.05  55 3.08  46 3.08
                            52 3.09  40 3.28  39 3.39
  38  0.247  0.915  0.627-  56 2.86  44 2.87  59 2.92  40 2.96  48 3.00  36 3.04  45 3.23
  39  0.252  0.614  0.376-  35 2.93  19 2.97  15 2.98  47 3.07  43 3.07  51 3.07  55 3.08  37 3.39
                            49 3.53
  40  0.252  0.129  0.550-  20 2.91  38 2.96  48 2.99  16 3.01  44 3.05  52 3.09  56 3.09  36 3.10
                            60 3.12  46 3.18  37 3.28  50 3.56
  41  0.865  0.859  0.370-   6 2.96  24 3.00  61 3.05  13 3.05  57 3.06  49 3.12   1 3.35  28 3.36
                            51 3.49  63 3.53
  42  0.866  0.384  0.543-  14 2.88   5 2.94  23 2.98  58 3.02  62 3.04   7 3.05  50 3.08  63 3.08
                            53 3.14  27 3.37  64 3.37   2 3.37  52 3.60
  43  0.381  0.352  0.373-  34 2.91  22 2.97  37 3.05  39 3.07  35 3.08   9 3.10  31 3.11  55 3.26
                            11 3.27  46 3.29
  44  0.380  0.869  0.549-  38 2.87  33 2.88  32 2.91  21 2.93  25 2.99  45 3.04  40 3.05  19 3.06
                            10 3.13  36 3.27  12 3.31  56 3.39  46 3.41
  45  0.383  0.640  0.625-  65 2.29  33 2.86  21 2.89  26 2.96  44 3.04  20 3.10  32 3.12  38 3.23
                             3 3.23  59 3.51
  46  0.384  0.104  0.456-  31 2.95  19 2.96  10 2.96  22 2.97  34 2.98  25 2.99  37 3.08  40 3.18
                             4 3.24  60 3.27  43 3.29  16 3.41  44 3.41  15 3.43
  47  0.117  0.611  0.465-  21 2.97  37 3.02  39 3.07   5 3.08  19 3.12  53 3.14  49 3.15  57 3.17
                            56 3.19  52 3.24  63 3.42  51 3.52  55 3.80
  48  0.116  0.165  0.633-  40 2.99  50 2.99  38 3.00  20 3.00  52 3.09  54 3.18  58 3.26  64 3.63
                            56 3.89
  49  0.996  0.593  0.368-  63 3.05  29 3.07  41 3.12  47 3.15  51 3.16  55 3.23  53 3.44  39 3.53
                            61 3.65  57 3.82
  50  0.994  0.121  0.545-  48 2.99  54 3.07  42 3.08  64 3.13  30 3.16  56 3.20  52 3.21  28 3.22
                            57 3.22  53 3.24  60 3.36  40 3.56  62 3.58
  51  0.119  0.872  0.375-  60 3.00  22 3.02   6 3.05  39 3.07  19 3.08  57 3.16  49 3.16  41 3.49
                            47 3.52
  52  0.126  0.395  0.555-  65 2.47  21 2.93  20 3.04   5 3.07  40 3.09  48 3.09  37 3.09  50 3.21
                            58 3.24  47 3.24  59 3.27  53 3.37  42 3.60
  53  1.000  0.331  0.453-   6 2.91  29 2.94  28 2.98  60 3.06  63 3.08  55 3.09  42 3.14  47 3.14
                            50 3.24  52 3.37  49 3.44
  54  0.986  0.892  0.623-  30 2.79  59 2.97  56 3.05  64 3.05  50 3.07  27 3.09   5 3.10  48 3.18

[...]

  59  0.129  0.661  0.629-  65 2.08  38 2.92   5 2.92  54 2.97  56 3.02  58 3.18  52 3.27  21 3.36
                            45 3.51
  60  0.147  0.092  0.451-  51 3.00  37 3.04  53 3.06  19 3.07   6 3.08  22 3.10  40 3.12  57 3.13
                            55 3.24  46 3.27  50 3.36  56 3.42
  61  0.731  0.606  0.367-   1 2.93  17 2.95   9 2.95  11 2.96  29 2.98  41 3.05  63 3.17  49 3.65

  62  0.735  0.129  0.538-  28 2.78  18 2.81  12 2.94   4 2.95   2 2.96  10 3.00  30 3.01   7 3.01
                            42 3.04  64 3.10   8 3.26  13 3.44  50 3.58
  63  0.869  0.592  0.458-  23 2.93  13 2.98  49 3.05   7 3.07  42 3.08  53 3.08   5 3.08  57 3.11
                            61 3.17  29 3.25  47 3.42  17 3.44  41 3.53
  64  0.853  0.146  0.633-  14 2.80   8 3.04  54 3.05  62 3.10  58 3.12  50 3.13  18 3.15  42 3.37
                            48 3.63
  65  0.240  0.533  0.605-  20 2.05  59 2.08  21 2.10  45 2.29  52 2.47

  LATTYP: Found a simple orthorhombic cell.
 ALAT       =     9.5644817352
 B/A-ratio  =     1.4398428730
 C/A-ratio  =     2.8922184390

  Lattice vectors:

 A1 = (   0.0000000000,  -9.5644817352,   0.0000000000)
 A2 = ( -13.7713508606,   0.0000000000,   0.0000000000)
 A3 = (   0.0000000000,   0.0000000000, -27.6625704340)

Analysis of symmetry for initial positions (statically):
 Subroutine PRICEL returns:
 Original cell was already a primitive cell.

 Routine SETGRP: Setting up the symmetry group for a
 simple orthorhombic supercell.

[...]
    208      -0.0091      0.00000
    209       0.0100      0.00000
    210       0.0552      0.00000
    211       0.0767      0.00000
    212       0.0957      0.00000

 soft charge-density along one line, spin component           1
         0         1         2         3         4         5         6         7         8         9
 total charge-density along one line

------------------------ aborting loop because EDIFF is reached ----------------------------------------

  FORCE on cell =-STRESS in cart. coord.  units (eV):
  Direction    XX          YY          ZZ          XY          YZ          ZX
  Alpha Z   518.63607   518.63607   518.63607
  Ewald   78359.73975 83540.57980-89584.98580  -920.04694    40.32366   537.10354
  Hartree 82812.15085 87742.76719-79273.26124  -721.10624    27.01732   512.27510
  E(xc)   -1471.34286 -1474.08190 -1462.14579     0.54141     0.03558     0.09312
  Local  ************************165217.98078  1636.63219   -65.25517 -1048.97039
  n-local   -46.87189   -46.14701   -78.83203     8.16117    -2.49430     0.96854
  augment   443.04336   443.86578   438.94488    -1.44863     0.40370     0.11396
  Kinetic  4200.54676  4189.16040  4207.81775    -6.98546     5.82242    -3.08494
  Fock        0.00000     0.00000     0.00000     0.00000     0.00000     0.00000
  Total     -34.82147   -26.34259   -15.84538    -4.25250     5.85320    -1.50107
  in kB     -15.31183   -11.58346    -6.96759    -1.86993     2.57379    -0.66006

 VOLUME and BASIS-vectors are now :
  energy-cutoff  :      600.00
  volume of cell :     3643.60
      direct lattice vectors                 reciprocal lattice vectors
    13.771350861  0.000000000  0.000000000     0.072614518  0.000000000  0.000000000
     0.000000000  9.564481735  0.000000000     0.000000000  0.104553496  0.000000000
     0.000000000  0.000000000 27.662570434     0.000000000  0.000000000  0.036149931

  length of vectors
    13.771350861  9.564481735 27.662570434     0.072614518  0.104553496  0.036149931

 FORCES acting on ions
    electron-ion (+dipol)            ewald-force                    non-local-force                 convergence-correction
   -.469E+02 -.339E+02 0.375E+03   0.467E+02 0.337E+02 -.375E+03   0.118E+00 0.681E-01 -.806E+00   -.155E-01 0.301E-02 0.155E-02
   -.201E+02 -.351E+02 -.148E+03   0.200E+02 0.350E+02 0.148E+03   0.113E+00 0.112E+00 0.196E+00   -.384E-02 0.835E-03 0.892E-02
   0.379E+02 0.195E+02 -.376E+03   -.378E+02 -.190E+02 0.375E+03   -.107E+00 -.539E+00 0.100E+01   0.521E-02 -.120E-01 0.283E-02
   0.777E+00 0.636E+01 0.190E+03   -.871E+00 -.613E+01 -.189E+03   0.108E+00 -.394E+00 -.104E+01   -.137E-01 0.452E-03 0.290E-02
   -.570E+02 0.510E+01 -.120E+03   0.568E+02 -.460E+01 0.122E+03   0.217E+00 -.502E+00 -.127E+01   0.508E-02 -.321E-02 0.124E-01
   -.465E+02 0.481E+01 0.318E+03   0.458E+02 -.421E+01 -.315E+03   0.674E+00 -.102E+01 -.229E+01   0.144E-01 -.149E-02 0.948E-03
   -.379E+03 -.717E+01 0.419E+03   0.379E+03 0.787E+01 -.420E+03   0.377E-01 -.339E+00 0.913E+00   -.400E-01 0.163E-02 0.553E-01
   -.269E+03 0.238E+02 -.168E+04   0.268E+03 -.227E+02 0.168E+04   0.897E+00 -.103E+01 0.409E+01   0.720E-01 -.444E-02 0.238E-01
   0.100E+03 -.102E+02 0.161E+04   -.100E+03 0.911E+01 -.161E+04   -.561E+00 0.627E+00 -.435E+01   -.591E-01 0.504E-02 0.246E-01
   0.206E+03 0.175E+02 -.455E+03   -.206E+03 -.175E+02 0.456E+03   -.387E-01 0.135E-02 -.112E+01   -.565E-02 0.350E-01 -.248E-01
   -.555E+02 0.138E+03 0.168E+04   0.564E+02 -.137E+03 -.168E+04   -.503E+00 -.422E+00 -.274E+01   -.745E-01 -.154E-01 0.111E-01
   0.108E+03 0.127E+03 -.457E+03   -.107E+03 -.128E+03 0.457E+03   -.740E+00 0.164E+00 -.212E+00   0.103E-01 -.106E-01 -.958E-02
   -.418E+03 -.186E+01 0.692E+03   0.419E+03 0.711E+00 -.691E+03   -.824E+00 0.140E+01 -.161E+01   -.317E-01 -.811E-03 0.381E-01
   -.161E+03 -.284E+02 -.154E+04   0.163E+03 0.280E+02 0.153E+04   -.160E+01 0.417E+00 0.316E+01   0.221E-01 -.193E-02 0.189E-01
   0.298E+03 -.117E+03 0.151E+04   -.298E+03 0.117E+03 -.151E+04   0.255E+00 -.387E+00 -.415E+01   -.282E-01 0.386E-01 0.143E-01
   0.334E+03 -.892E+02 -.434E+03   -.334E+03 0.891E+02 0.434E+03   0.936E-01 0.569E-01 -.493E+00   -.505E-02 0.314E-01 -.118E-01
   -.134E+02 0.217E+01 0.167E+03   0.130E+02 -.205E+01 -.167E+03   0.517E+00 -.293E+00 0.111E+00   -.221E-01 -.125E-02 0.123E-01
   -.122E+00 -.320E+02 -.663E+03   -.656E+00 0.316E+02 0.661E+03   0.754E+00 0.391E+00 0.194E+01   0.190E-01 0.218E-01 0.477E-02
   0.172E+03 -.112E+02 0.152E+03   -.171E+03 0.109E+02 -.153E+03   -.131E+01 0.661E+00 0.694E+00   0.717E-02 0.232E-04 0.195E-03
   0.112E+03 0.662E+02 -.630E+03   -.111E+03 -.671E+02 0.628E+03   -.152E+01 0.814E+00 0.251E+01   -.816E-02 0.152E-01 -.418E-02
   0.107E+03 -.682E+02 -.760E+02   -.106E+03 0.684E+02 0.744E+02   -.940E+00 -.172E+00 0.162E+01   0.912E-04 -.436E-02 -.121E-02
   0.117E+03 -.550E+02 0.463E+03   -.116E+03 0.551E+02 -.460E+03   -.816E+00 -.264E+00 -.262E+01   0.874E-02 0.709E-03 0.503E-02
   -.102E+03 0.667E+02 -.158E+03   0.102E+03 -.663E+02 0.157E+03   0.140E+00 -.414E+00 0.452E+00   -.242E-02 -.550E-02 0.156E-01
   -.101E+03 0.599E+02 0.517E+03   0.999E+02 -.593E+02 -.514E+03   0.419E+00 -.482E+00 -.271E+01   -.144E-01 -.327E-02 -.882E-03
   0.821E+02 -.135E+02 0.149E+03   -.829E+02 0.130E+02 -.149E+03   0.766E+00 0.728E+00 -.355E+00   -.146E-01 -.153E-02 -.726E-03
   0.219E+02 -.395E+02 -.545E+03   -.228E+02 0.388E+02 0.542E+03   0.831E+00 0.718E+00 0.241E+01   0.627E-03 0.909E-02 -.278E-03
   -.126E+03 -.133E+01 -.453E+03   0.126E+03 0.147E+01 0.450E+03   0.415E-01 -.128E+00 0.232E+01   0.187E-02 -.559E-02 0.813E-02
   -.165E+03 0.706E+01 0.178E+03   0.165E+03 -.688E+01 -.179E+03   0.400E+00 -.311E+00 0.261E+00   0.199E-02 -.738E-05 0.153E-01
   -.150E+03 -.545E+01 0.473E+03   0.149E+03 0.539E+01 -.470E+03   0.676E+00 -.536E-01 -.260E+01   0.261E-02 -.252E-02 0.191E-02
   -.200E+03 -.509E+01 -.165E+03   0.199E+03 0.515E+01 0.165E+03   0.985E+00 -.598E-01 0.273E+00   0.254E-02 0.176E-04 0.170E-01
   0.777E+02 0.956E+00 0.166E+03   -.778E+02 -.617E+00 -.166E+03   0.749E-01 -.934E-02 -.123E+00   -.168E-01 0.125E-02 0.467E-02
   0.127E+03 0.387E+02 -.543E+03   -.126E+03 -.385E+02 0.541E+03   -.557E+00 -.188E+00 0.213E+01   0.630E-02 -.942E-02 -.181E-02
   0.601E+02 -.916E+01 -.176E+03   -.603E+02 0.925E+01 0.175E+03   0.235E+00 -.774E-01 0.691E+00   -.134E-01 -.968E-02 -.207E-02
   0.357E+02 -.578E+00 0.497E+03   -.364E+02 0.503E+00 -.494E+03   0.627E+00 0.434E-01 -.251E+01   -.214E-01 -.143E-02 0.299E-02
   0.129E+03 0.591E+01 0.152E+03   -.128E+03 -.621E+01 -.152E+03   -.750E+00 0.656E+00 -.457E+00   -.830E-02 -.173E-02 0.646E-02
   0.104E+03 0.400E+02 -.535E+03   -.103E+03 -.391E+02 0.532E+03   -.536E+00 -.953E+00 0.267E+01   -.716E-02 0.201E-01 -.238E-02
   0.129E+03 0.121E+02 0.173E+03   -.129E+03 -.117E+02 -.173E+03   -.816E-01 -.445E+00 -.393E+00   0.905E-02 0.166E-02 0.411E-02
   0.515E+02 -.306E+01 -.442E+03   -.519E+02 0.265E+01 0.440E+03   0.427E+00 0.416E+00 0.221E+01   -.157E-01 -.577E-02 -.117E-02
   0.126E+03 0.387E+02 0.421E+03   -.126E+03 -.384E+02 -.418E+03   0.201E+00 -.507E+00 -.279E+01   0.109E-01 0.697E-03 0.868E-02
   0.126E+03 0.471E+02 -.161E+03   -.126E+03 -.464E+02 0.162E+03   -.332E+00 -.703E+00 -.103E+01   -.598E-02 0.661E-02 -.665E-02
   -.992E+02 -.126E+01 0.481E+03   0.995E+02 0.125E+01 -.477E+03   -.499E+00 0.127E-01 -.308E+01   0.286E-02 0.288E-02 0.138E-05
   -.150E+03 0.180E+01 -.137E+03   0.150E+03 -.189E+01 0.137E+03   0.570E+00 0.855E-01 -.639E+00   0.243E-02 0.302E-03 0.216E-01
   0.130E+03 0.289E+02 0.449E+03   -.130E+03 -.292E+02 -.447E+03   -.225E+00 0.349E+00 -.244E+01   -.593E-02 -.852E-02 0.693E-02
   0.138E+03 0.160E+02 -.192E+03   -.137E+03 -.158E+02 0.192E+03   -.486E+00 -.161E+00 0.597E-01   -.103E-01 -.964E-02 -.153E-01
   0.262E+02 -.514E+02 -.494E+03   -.261E+02 0.511E+02 0.491E+03   -.786E-01 0.295E+00 0.325E+01   -.675E-02 -.162E-01 -.466E-02
   0.130E+03 0.648E-01 0.187E+03   -.130E+03 -.225E+00 -.188E+03   0.324E+00 -.341E-01 0.468E-01   -.670E-02 0.164E-02 -.800E-02
   0.386E+02 0.739E+00 0.133E+03   -.384E+02 -.596E+00 -.133E+03   -.181E+00 -.219E+00 0.318E+00   0.174E-01 -.111E-02 0.123E-01
   0.197E+02 0.145E+02 -.439E+03   -.196E+02 -.146E+02 0.436E+03   -.766E-01 0.444E-01 0.330E+01   -.930E-02 0.643E-02 0.483E-03
   -.412E+02 -.297E+00 0.435E+03   0.414E+02 0.663E+00 -.431E+03   -.453E-01 -.263E+00 -.276E+01   0.164E-01 0.790E-03 0.216E-02
   -.703E+02 -.445E+01 -.144E+03   0.702E+02 0.406E+01 0.144E+03   0.793E-02 0.389E+00 -.319E-01   0.551E-02 0.321E-02 0.156E-01
   0.511E+02 -.351E+01 0.413E+03   -.512E+02 0.285E+01 -.410E+03   -.828E-02 0.162E+00 -.314E+01   0.215E-01 0.698E-02 0.352E-02
   0.750E+02 0.199E+02 -.153E+03   -.756E+02 -.211E+02 0.152E+03   0.577E+00 0.115E+01 0.410E+00   0.411E-02 0.245E-02 0.772E-02
   -.716E+02 -.159E+01 0.163E+03   0.717E+02 0.182E+01 -.164E+03   0.507E-01 0.189E+00 0.428E-01   0.163E-01 -.132E-02 0.150E-01
   -.738E+02 -.705E+01 -.420E+03   0.741E+02 0.718E+01 0.417E+03   -.249E+00 -.129E+00 0.258E+01   -.174E-02 -.446E-03 0.646E-02
   0.406E+02 0.161E+01 0.430E+03   -.399E+02 -.150E+01 -.426E+03   -.841E+00 -.266E+00 -.319E+01   0.201E-01 -.746E-02 0.438E-02
   0.289E+02 -.139E+02 -.131E+03   -.285E+02 0.139E+02 0.132E+03   -.410E+00 0.483E-03 -.518E+00   0.295E-02 -.345E-02 0.353E-02
   -.971E+02 -.104E+01 0.134E+03   0.967E+02 0.861E+00 -.135E+03   0.520E+00 0.277E+00 0.156E+00   0.139E-01 0.749E-03 0.128E-01
   -.910E+02 0.418E+01 -.457E+03   0.901E+02 -.449E+01 0.453E+03   0.980E+00 0.308E+00 0.353E+01   -.150E-02 -.370E-03 0.339E-02
   0.567E+02 -.379E+02 -.449E+03   -.561E+02 0.380E+02 0.445E+03   -.611E+00 -.255E-01 0.339E+01   -.517E-02 -.589E-02 -.196E-04
   0.502E+02 -.516E+01 0.166E+03   -.496E+02 0.496E+01 -.166E+03   -.646E+00 0.599E+00 0.187E+00   0.168E-01 0.667E-03 0.176E-02
   -.141E+03 -.430E+02 0.513E+03   0.140E+03 0.423E+02 -.509E+03   0.837E+00 0.413E-01 -.325E+01   -.131E-01 0.243E-02 0.874E-03
   -.146E+03 -.406E+02 -.140E+03   0.145E+03 0.402E+02 0.141E+03   0.285E+00 0.386E+00 -.615E+00   -.737E-03 0.493E-02 0.155E-01
   -.158E+03 0.442E+01 0.164E+03   0.157E+03 -.442E+01 -.165E+03   0.728E+00 0.429E+00 0.321E+00   0.327E-02 -.316E-03 0.183E-01
   -.130E+03 0.994E+01 -.470E+03   0.130E+03 -.937E+01 0.467E+03   0.488E+00 -.573E+00 0.323E+01   0.261E-02 0.576E-02 0.632E-02
   0.133E+03 -.503E+02 -.591E+03   -.135E+03 0.523E+02 0.593E+03   0.178E+01 -.205E+01 -.195E+01   0.768E-02 0.530E-03 -.180E-01
   -.105E+01 0.134E+01 0.645E+01   -.341E-12 -.171E-12 0.159E-11   0.119E+01 -.142E+01 -.685E+01   -.135E+00 0.761E-01 0.368E+00

 POSITION                                       TOTAL-FORCE (eV/Angst)
      8.57631      8.29685     10.39845        -0.079830     -0.167887      0.023026
      8.56410      3.73792     15.15420        -0.000147     -0.000287     -0.001796
      8.49393      6.03846     17.27880        -0.002529     -0.000157      0.000223
      8.51616      0.79995     12.43874        -0.000085     -0.162159     -0.380532
     13.49035      6.11541     15.30618        -0.002253     -0.000408     -0.000379
     13.49094      1.15316     10.44749        -0.017219     -0.414581     -0.071270
     10.03344      3.28428     12.67411        -0.075022      0.360698     -0.567073
      9.95959      8.49063     17.19681        -0.006479     -0.000982     -0.000826
      7.12524      5.81577     10.15765        -0.175489     -0.480054      0.871613
      7.12126      1.22806     14.91749        -0.005838      0.001796     -0.001130
      8.51222      3.28036     10.20450         0.269990      0.068212      0.755661
      8.52807      8.32142     14.86838        -0.002366     -0.001263     -0.002611
     10.22263      8.06723     12.77991         0.285020      0.248152     -0.628849
     10.26405      3.77550     17.40589        -0.005545      0.002323      0.004059
      5.42664      8.10481     10.20639         0.366379      0.074866      0.915602
      5.46169      3.46707     14.94844        -0.005058     -0.001306     -0.000734
      8.52843      5.75423     12.65640         0.047087     -0.174527     -0.077793
      8.58664      1.44239     17.22939        -0.004228     -0.003180      0.000220
      3.84829      7.97317     12.47259        -0.515649      0.365249     -0.281214
      4.06880      3.26272     17.20094        -0.005588      0.002047      0.001911
      3.82147      5.75259     14.82897         0.002884     -0.003424      0.001241
      3.90063      0.73891     10.00000         0.496911     -0.161255      0.377917
     10.13759      6.04129     14.92459        -0.001868      0.000940     -0.001170
     10.19112      1.10470     10.13736        -0.219455      0.058007      0.394706
      6.82945      7.99424     12.66670        -0.092219      0.227439     -0.448146
      6.83618      3.62918     17.38123         0.000151     -0.001422      0.002543
     11.54477      6.19669     17.27996        -0.004204      0.001040     -0.002755
     11.66772      1.05372     12.57547        -0.023976     -0.127226     -0.717420
     11.73919      3.33868     10.41199        -0.279287     -0.112575      0.521358
     11.69581      8.27238     15.20523        -0.003442     -0.002683     -0.003497
      7.18522      3.24644     12.75390        -0.092552      0.331488     -0.522627
      7.23832      8.53761     17.23117        -0.001537      0.005866      0.001349
      6.85139      5.94232     14.91624         0.002680      0.001581     -0.003607
      6.87795      0.97560     10.08695        -0.075967     -0.032202      0.141305
      5.51084      5.55012     12.48419        -0.093427      0.359204     -0.384915
      5.71434      1.16019     17.35622        -0.003999     -0.001444     -0.001784
      3.51249      3.50019     12.83519        -0.177643     -0.000904     -0.368828
      3.35931      8.74994     17.32739        -0.001076     -0.001038      0.001991
      3.46798      5.87237     10.40868         0.101077     -0.223914     -0.067531
      3.45028      1.23079     15.20541        -0.002552     -0.001392     -0.002478
     11.91771      8.21633     10.24534        -0.185427     -0.001563      0.668701
     11.91486      3.65912     15.03367         0.002250     -0.000520     -0.004881
      5.24135      3.36543     10.32679         0.155284      0.072060      0.155886
      5.21397      8.30818     15.17050        -0.001927      0.003489     -0.003382
      5.27058      6.13599     17.29115        -0.001844     -0.000678      0.002635
      5.28930      0.99064     12.60849         0.210437     -0.192671     -0.352532
      1.60538      5.84491     12.85122         0.069727     -0.077178     -0.333528
      1.58185      1.59308     17.51415        -0.004543     -0.000665      0.001168
     13.72038      5.67134     10.18293         0.187599      0.103419      0.674378
     13.66575      1.14785     15.09321        -0.005292     -0.001479     -0.000129
      1.63456      8.33987     10.36453        -0.022869     -0.495055      0.154714
      1.70723      3.77889     15.33228         0.000709      0.003649      0.001255
     13.76831      3.16119     12.53308         0.146226      0.419511     -0.265343
     13.57652      8.52813     17.24676        -0.002235     -0.000239      0.001198
      1.99440      3.17314     10.17666        -0.148736     -0.160939      0.691201
      1.83501      8.14561     15.00923        -0.001853      0.001991     -0.004209
     13.48051      8.37930     12.86886         0.118467      0.094706     -0.325293
     13.26618      4.06122     17.69915        -0.001950     -0.000386      0.001995
      1.74011      6.29676     17.40562        -0.001377      0.003356      0.002236
      2.02729      0.87737     12.46815        -0.062667      0.402498     -0.286917
     10.07171      5.79402     10.14663         0.141748     -0.633937      0.160639
     10.11493      1.22958     14.87555        -0.001089     -0.000299     -0.002253
     11.97051      5.66181     12.67660        -0.183975      0.430363     -0.416537
     11.70331      1.36332     17.54093         0.000543     -0.000431      0.001881
      3.31388      5.10874     16.76104        -0.002855     -0.001638      0.001357
    total drift:                               -0.004452     -0.004037     -0.024462

  FREE ENERGIE OF THE ION-ELECTRON SYSTEM (eV)
  free  energy   TOTEN  =      -513.88369161 eV

  energy  without entropy=     -513.87708593  energy(sigma->0) =     -513.88204019

 d Force = 0.1362385E-05[ 0.256E-05, 0.168E-06]  d Energy =-0.9506430E-04 0.964E-04
 d Force = 0.3487917E-01[ 0.349E-01, 0.349E-01]  d Ewald  = 0.3487917E-01-0.451E-09

 reached required accuracy - stopping structural energy minimisation