 vasp.5.4.1 05Feb16 (build Mar 19 2020 08:54:17) complex

 executed on           IFC91_ompi date 2021.11.11  13:03:12

 INCAR:
 POTCAR:    PAW_PBE Al 04Jan2001
 POTCAR:    PAW_PBE Nb_sv 25May2007
 POTCAR:    PAW_PBE Ta 17Jan2003
 POTCAR:    PAW_PBE Ti 08Apr2002
 POTCAR:   PAW_PBE Zr 08Apr2002
 POTCAR:    PAW_PBE O 08Apr2002

 POTCAR:    PAW_PBE Al 04Jan2001
   VRHFIN =Al: s2p1

   TITEL  = PAW_PBE Al 04Jan2001
   POMASS =   26.981; ZVAL   =    3.000    mass and valenz
   ENMAX  =  240.300; ENMIN  =  180.225 eV

 POTCAR:    PAW_PBE Nb_sv 25May2007
   VRHFIN =Nb: 4p5s4d

   TITEL  = PAW_PBE Nb_sv 25May2007
   POMASS =   92.910; ZVAL   =   13.000    mass and valenz
   ENMAX  =  293.235; ENMIN  =  219.927 eV

 POTCAR:    PAW_PBE Ta 17Jan2003
   VRHFIN =Ta:  6s5d

   TITEL  = PAW_PBE Ta 17Jan2003
   POMASS =  180.948; ZVAL   =    5.000    mass and valenz
   ENMAX  =  223.667; ENMIN  =  167.750 eV

 POTCAR:    PAW_PBE Ti 08Apr2002
   VRHFIN =Ti: d3 s1

   TITEL  = PAW_PBE Ti 08Apr2002
   POMASS =   47.880; ZVAL   =    4.000    mass and valenz
   ENMAX  =  178.330; ENMIN  =  133.747 eV

 POTCAR:   PAW_PBE Zr 08Apr2002
   VRHFIN =Zr: 5s4d5p

   TITEL  = PAW_PBE Zr 08Apr2002
   POMASS =   91.224; ZVAL   =    4.000    mass and valenz
   ENMAX  =  154.632; ENMIN  =  115.974 eV
   QCUT   =   -3.371; QGAM   =    6.742    optimization parameters

   Description
     l     E      TYP  RCUT    TYP  RCUT
     2   .000     23  3.000
     2   .000     23  3.000
     0   .000     23  3.000
     0  2.000     23  3.000
     1  -.400     23  3.000
     3   .000      7   .000

 POTCAR:    PAW_PBE O 08Apr2002
   VRHFIN =O: s2p4

   TITEL  = PAW_PBE O 08Apr2002
   POMASS =   16.000; ZVAL   =    6.000    mass and valenz
   ENMAX  =  400.000; ENMIN  =  300.000 eV

 WARNING: PSMAXN for non-local potential too small
          PSMAXN should be >   12.5490833729506       NTYP=           5
  PAW_PBE Al 04Jan2001                  :
  PAW_PBE Nb_sv 25May2007               :
  PAW_PBE Ta 17Jan2003                  :
  PAW_PBE Ti 08Apr2002                  :
 PAW_PBE Zr 08Apr2002                   :
  PAW_PBE O 08Apr2002                   :

 POSCAR: Al Nb Ta Ti Zr
  positions in direct lattice
  velocities in cartesian coordinates
 exchange correlation table for  LEXCH =        8
   RHO(1)=    0.500       N(1)  =     2000
   RHO(2)=  100.500       N(2)  =     4000

 ion  position               nearest neighbor table
   1  0.623  0.867  0.376-  34 2.83  25 2.88  24 2.88   9 2.88  13 2.90   4 2.91  61 2.93  15 3.16
                            41 3.35  17 3.40
   2  0.621  0.393  0.547-  31 2.78  14 2.79  33 2.80  26 2.80  23 2.81  10 2.90   7 2.90  62 2.98
                            18 3.15  16 3.17   3 3.17  17 3.18  42 3.36
   3  0.617  0.635  0.625-  32 2.84  23 2.87  33 2.87   8 2.89  14 2.89  26 2.97  27 3.04   2 3.17
                            45 3.23
   4  0.618  0.084  0.450-  31 2.80  24 2.86  34 2.87  13 2.88   1 2.91  10 2.91  25 2.92   7 2.92
                            62 2.98  28 3.16  12 3.17  46 3.24
   5  0.981  0.640  0.554-  27 2.75  30 2.80  42 2.96  56 2.96  52 3.01  59 3.03  54 3.06  63 3.10
                            47 3.12  58 3.23  57 3.34
   6  0.980  0.121  0.378-  29 2.80  28 2.80  53 2.91  41 2.96  51 3.05  55 3.05  60 3.08  57 3.37

   7  0.729  0.343  0.458-  28 2.77  29 2.83  31 2.85  17 2.89  11 2.90   2 2.90   4 2.92  62 3.04
                            63 3.07  42 3.09
   8  0.721  0.897  0.621-  30 2.64  12 2.70  18 2.78  32 2.80  27 2.87   3 2.89  64 3.01  62 3.18

   9  0.517  0.608  0.367-  35 2.84  15 2.85  17 2.87   1 2.88  11 2.89  61 2.95  43 3.10
  10  0.513  0.133  0.539-  18 2.73  36 2.77  16 2.83  12 2.87   2 2.90   4 2.91  31 2.93  46 2.93
                            62 3.06  44 3.12
  11  0.618  0.343  0.369-  24 2.75  34 2.83  31 2.87   9 2.89   7 2.90  61 2.96  43 3.27
  12  0.618  0.874  0.538-   8 2.70  32 2.72  13 2.73  25 2.81  23 2.82  10 2.87  33 2.88  62 2.93
                             4 3.17  44 3.36
  13  0.742  0.843  0.462-  12 2.73  17 2.87   4 2.88   1 2.90  28 2.94  30 2.94  23 2.95  63 2.98
                            41 3.05  57 3.27  62 3.47
  14  0.741  0.391  0.628-   2 2.79  27 2.80  42 2.84  18 2.88   3 2.89  64 2.90  58 3.01
  15  0.394  0.847  0.369-  22 2.68  19 2.76  25 2.83  34 2.84   9 2.85  39 2.98   1 3.16  46 3.43

  16  0.392  0.371  0.542-  20 2.65  21 2.66  26 2.75  10 2.83  33 2.85  37 2.87  31 2.89  40 3.06
                             2 3.17
  17  0.619  0.602  0.458-  25 2.81  23 2.81  33 2.82  31 2.85   9 2.87  13 2.87   7 2.89  61 2.95
                            35 3.03   2 3.18   1 3.40  63 3.44
  18  0.619  0.148  0.623-  10 2.73   8 2.78  26 2.78  32 2.79  62 2.82  14 2.88  36 3.07   2 3.15
                            64 3.31
  19  0.279  0.834  0.451-  15 2.76  35 2.94  46 2.96  39 2.97  25 2.99  44 3.02  60 3.07  51 3.08
                            47 3.12  56 3.17  21 3.27
  20  0.285  0.378  0.622-  16 2.65  36 2.80  45 2.87  26 2.92  59 3.01  52 3.05  48 3.05  40 3.10
                            21 3.17
  21  0.278  0.595  0.535-  65 2.09  16 2.66  35 2.87  52 2.95  45 2.96  37 2.97  47 2.97  44 3.02
                            56 3.04  33 3.06  59 3.09  20 3.17  19 3.27
  22  0.283  0.077  0.361-  15 2.68  46 2.97  43 2.97  34 2.99  51 3.02  55 3.10  60 3.10
  23  0.737  0.634  0.540-  27 2.70  30 2.78   2 2.81  17 2.81  12 2.82   3 2.87  63 2.93  13 2.95
                            42 3.00
  24  0.740  0.115  0.366-  29 2.73  11 2.75  28 2.85   4 2.86   1 2.88  41 3.00
  25  0.496  0.836  0.458-  35 2.78  12 2.81  17 2.81  15 2.83   1 2.88   4 2.92  19 2.99  46 2.99
                            44 3.01  33 3.02
  26  0.497  0.378  0.627-  36 2.73  16 2.75  18 2.78   2 2.80  20 2.92   3 2.97  45 2.98
  27  0.838  0.648  0.624-  23 2.70  58 2.72   5 2.75  14 2.80   8 2.87  30 2.89   3 3.04  54 3.20
                            42 3.37
  28  0.847  0.110  0.455-   7 2.77  62 2.80   6 2.80  24 2.85  57 2.90  13 2.94  53 2.98  29 3.15
                             4 3.16  50 3.25  41 3.36
  29  0.852  0.349  0.376-  24 2.73   6 2.80   7 2.83  53 2.94  61 2.98  49 3.07  28 3.15  63 3.25

  30  0.853  0.868  0.553-   8 2.64  23 2.78   5 2.80  27 2.89  54 2.91  13 2.94  57 2.97  62 3.00
                            50 3.04  64 3.41
  31  0.522  0.339  0.461-   2 2.78   4 2.80  17 2.85   7 2.85  35 2.86  11 2.87  16 2.89  10 2.93
                            46 2.95  43 3.11
  32  0.518  0.895  0.623-  12 2.72  18 2.79   8 2.80  36 2.83   3 2.84  44 2.85  45 3.04
  33  0.499  0.626  0.540-   2 2.80  17 2.82  35 2.83  16 2.85   3 2.87  12 2.88  45 2.91  44 2.95
                            25 3.02  21 3.06
  34  0.499  0.102  0.365-  11 2.83   1 2.83  15 2.84   4 2.87  43 2.91  46 2.98  22 2.99
  35  0.400  0.580  0.451-  25 2.78  33 2.83   9 2.84  31 2.86  21 2.87  37 2.88  39 2.93  19 2.94
                            17 3.03  43 3.08
  36  0.396  0.133  0.621-  26 2.73  10 2.77  20 2.80  32 2.83  40 2.87  38 3.00  18 3.07  44 3.19

  37  0.255  0.366  0.464-  16 2.87  35 2.88  21 2.97  47 3.02  60 3.04  52 3.05  43 3.05  55 3.08
                            46 3.08  40 3.27  39 3.39
  38  0.236  0.923  0.630-  65 2.05  56 2.87  40 2.98  36 3.00  44 3.00  59 3.12  48 3.19  54 3.21
                            45 3.35
  39  0.252  0.614  0.376-  35 2.93  19 2.97  15 2.98  47 3.07  43 3.07  51 3.07  55 3.08  37 3.39
                            49 3.53
  40  0.243  0.135  0.551-  36 2.87  38 2.98  52 3.02  16 3.06  48 3.08  44 3.08  20 3.10  60 3.10
                            56 3.14  37 3.27  46 3.29  50 3.43
  41  0.865  0.859  0.370-   6 2.96  24 3.00  61 3.05  13 3.05  57 3.06  49 3.12   1 3.35  28 3.36
                            51 3.49  63 3.53
  42  0.865  0.380  0.546-  14 2.84   5 2.96  62 3.00  23 3.00  58 3.03   7 3.09  50 3.12  63 3.16
                            53 3.20  64 3.33   2 3.36  27 3.37  52 3.49
  43  0.381  0.352  0.373-  34 2.91  22 2.97  37 3.05  39 3.07  35 3.08   9 3.10  31 3.11  55 3.26
                            11 3.27  46 3.29
  44  0.375  0.876  0.548-  65 2.28  32 2.85  33 2.95  38 3.00  25 3.01  19 3.02  21 3.02  40 3.08
                            10 3.12  45 3.14  36 3.19  56 3.25  46 3.35  12 3.36
  45  0.383  0.643  0.627-  65 2.25  20 2.87  33 2.91  21 2.96  26 2.98  32 3.04  44 3.14   3 3.23
                            59 3.25  38 3.35
  46  0.384  0.104  0.456-  10 2.93  31 2.95  19 2.96  22 2.97  34 2.98  25 2.99  37 3.08   4 3.24
                            60 3.27  40 3.29  43 3.29  44 3.35  15 3.43
  47  0.117  0.611  0.465-  21 2.97  37 3.02  39 3.07  56 3.10  19 3.12   5 3.12  52 3.14  53 3.14
                            49 3.15  57 3.17  63 3.42  51 3.52  55 3.80
  48  0.105  0.197  0.636-  50 3.03  58 3.03  20 3.05  52 3.05  40 3.08  38 3.19  54 3.34  64 3.44

  49  0.996  0.593  0.368-  63 3.05  29 3.07  41 3.12  47 3.15  51 3.16  55 3.23  53 3.44  39 3.53
                            61 3.65  57 3.82
  50  0.995  0.112  0.546-  48 3.03  30 3.04  64 3.05  42 3.12  54 3.13  57 3.19  52 3.20  28 3.25
                            56 3.27  53 3.32  60 3.38  40 3.43  62 3.58
  51  0.119  0.872  0.375-  60 3.00  22 3.02   6 3.05  39 3.07  19 3.08  57 3.16  49 3.16  41 3.49
                            47 3.52
  52  0.118  0.395  0.550-  21 2.95   5 3.01  40 3.02  59 3.04  37 3.05  20 3.05  48 3.05  47 3.14
                            53 3.20  50 3.20  58 3.45  42 3.49
  53  1.000  0.331  0.453-   6 2.91  29 2.94  28 2.98  60 3.06  63 3.08  55 3.09  47 3.14  52 3.20
                            42 3.20  50 3.32  49 3.44
  54  0.005  0.881  0.626-  30 2.91  56 3.00   5 3.06  50 3.13  59 3.15  27 3.20  64 3.20  38 3.21
                            48 3.34
  55  0.145  0.332  0.368-   6 3.05  37 3.08  39 3.08  53 3.09  22 3.10  49 3.23  60 3.24  43 3.26
                            47 3.80
  56  0.140  0.843  0.542-  65 2.27  38 2.87   5 2.96  54 3.00  21 3.04  57 3.09  47 3.10  59 3.13
                            40 3.14  19 3.17  44 3.25  50 3.27  60 3.47
  57  0.979  0.876  0.465-  28 2.90  30 2.97  41 3.06  56 3.09  63 3.11  60 3.13  51 3.16  47 3.17
                            50 3.19  13 3.27   5 3.34   6 3.37  49 3.82
  58  0.956  0.428  0.644-  27 2.72  14 3.01  42 3.03  48 3.03  64 3.09   5 3.23  59 3.27  52 3.45

  59  0.147  0.623  0.626-  65 2.23  20 3.01   5 3.03  52 3.04  21 3.09  38 3.12  56 3.13  54 3.15
                            45 3.25  58 3.27
  60  0.147  0.092  0.451-  51 3.00  37 3.04  53 3.06  19 3.07   6 3.08  40 3.10  22 3.10  57 3.13
                            55 3.24  46 3.27  50 3.38  56 3.47
  61  0.731  0.606  0.367-   1 2.93  17 2.95   9 2.95  11 2.96  29 2.98  41 3.05  63 3.17  49 3.65

  62  0.735  0.129  0.539-  28 2.80  18 2.82  12 2.93   2 2.98   4 2.98  42 3.00  30 3.00   7 3.04
                            10 3.06  64 3.10   8 3.18  13 3.47  50 3.58
  63  0.869  0.592  0.458-  23 2.93  13 2.98  49 3.05   7 3.07  53 3.08   5 3.10  57 3.11  42 3.16
                            61 3.17  29 3.25  47 3.42  17 3.44  41 3.53
  64  0.858  0.139  0.633-  14 2.90   8 3.01  50 3.05  58 3.09  62 3.10  54 3.20  18 3.31  42 3.33
                            30 3.41  48 3.44
[...]

  FORCE on cell =-STRESS in cart. coord.  units (eV):
  Direction    XX          YY          ZZ          XY          YZ          ZX
  Alpha Z   518.63607   518.63607   518.63607
  Ewald   78647.42970 83784.45660-89949.47253  -816.99716    74.12609   527.15239
  Hartree 83102.57664 87994.69135-79650.04307  -642.47334    47.17661   500.40082
  E(xc)   -1470.31554 -1473.15494 -1461.08468    -0.21106    -1.15634    -0.11294
  Local  ************************165960.61523  1456.22480  -119.44716 -1027.48353
  n-local   -45.35077   -47.37572   -79.17048     8.37518     0.36081     1.10661
  augment   443.27244   443.60346   439.42373    -0.86435     0.01063     0.03214
  Kinetic  4197.56538  4186.26459  4205.08813    -6.11753     4.97672    -2.40356
  Fock        0.00000     0.00000     0.00000     0.00000     0.00000     0.00000
  Total     -37.99814   -32.31522   -16.00758    -2.06345     6.04736    -1.30807
  in kB     -16.70869   -14.20977    -7.03892    -0.90735     2.65917    -0.57519

 VOLUME and BASIS-vectors are now :
  energy-cutoff  :      600.00
  volume of cell :     3643.60
      direct lattice vectors                 reciprocal lattice vectors
    13.771350861  0.000000000  0.000000000     0.072614518  0.000000000  0.000000000
     0.000000000  9.564481735  0.000000000     0.000000000  0.104553496  0.000000000
     0.000000000  0.000000000 27.662570434     0.000000000  0.000000000  0.036149931

  length of vectors
    13.771350861  9.564481735 27.662570434     0.072614518  0.104553496  0.036149931

 FORCES acting on ions
    electron-ion (+dipol)            ewald-force                    non-local-force                 convergence-correction
   -.478E+02 -.340E+02 0.375E+03   0.476E+02 0.338E+02 -.374E+03   0.106E+00 0.102E+00 -.817E+00   0.533E-02 0.127E-02 -.137E-01
   -.190E+02 -.353E+02 -.144E+03   0.189E+02 0.352E+02 0.144E+03   0.133E+00 0.981E-01 0.159E+00   0.368E-02 -.147E-02 -.530E-02
   0.324E+02 0.200E+02 -.380E+03   -.321E+02 -.196E+02 0.378E+03   -.284E+00 -.405E+00 0.115E+01   0.482E-02 -.550E-02 0.480E-02
   -.281E+00 0.586E+01 0.188E+03   0.202E+00 -.569E+01 -.187E+03   0.878E-01 -.300E+00 -.795E+00   0.569E-02 0.266E-02 -.191E-01
   -.520E+02 0.829E+01 -.126E+03   0.517E+02 -.784E+01 0.128E+03   0.365E+00 -.458E+00 -.113E+01   0.360E-02 0.283E-03 -.166E-02
   -.454E+02 0.450E+01 0.318E+03   0.448E+02 -.394E+01 -.315E+03   0.669E+00 -.984E+00 -.226E+01   -.309E-02 -.710E-03 -.995E-02
   -.382E+03 -.713E+01 0.414E+03   0.381E+03 0.791E+01 -.415E+03   0.151E+00 -.370E+00 0.994E+00   0.121E-01 -.738E-02 -.755E-01
   -.281E+03 0.351E+02 -.169E+04   0.280E+03 -.340E+02 0.168E+04   0.131E+01 -.105E+01 0.428E+01   0.450E-01 0.716E-02 0.185E-01
   0.959E+02 -.855E+01 0.161E+04   -.955E+02 0.749E+01 -.161E+04   -.571E+00 0.604E+00 -.430E+01   0.738E-02 -.109E-01 -.524E-01
   0.199E+03 0.185E+01 -.451E+03   -.199E+03 -.198E+01 0.452E+03   0.154E+00 0.103E+00 -.124E+01   0.169E-01 0.201E-01 -.471E-01
   -.575E+02 0.138E+03 0.168E+04   0.582E+02 -.137E+03 -.168E+04   -.517E+00 -.413E+00 -.278E+01   0.130E-01 -.710E-02 -.520E-01
   0.907E+02 0.126E+03 -.454E+03   -.903E+02 -.126E+03 0.454E+03   -.432E+00 0.112E+00 -.280E+00   0.283E-01 0.601E-02 -.430E-01
   -.417E+03 -.177E+00 0.678E+03   0.418E+03 -.993E+00 -.676E+03   -.743E+00 0.144E+01 -.154E+01   0.242E-01 0.891E-02 -.861E-01
   -.160E+03 -.366E+02 -.153E+04   0.162E+03 0.361E+02 0.153E+04   -.155E+01 0.504E+00 0.307E+01   0.199E-01 -.136E-02 0.134E-01
   0.293E+03 -.118E+03 0.152E+04   -.293E+03 0.118E+03 -.152E+04   0.227E+00 -.375E+00 -.418E+01   -.607E-03 -.622E-02 -.592E-01
   0.343E+03 -.821E+02 -.483E+03   -.343E+03 0.820E+02 0.484E+03   0.162E+00 0.139E+00 -.690E+00   -.782E-02 0.110E-01 -.236E-01
   -.168E+02 0.201E+01 0.165E+03   0.164E+02 -.194E+01 -.165E+03   0.560E+00 -.218E+00 0.974E-01   0.470E-02 -.485E-02 -.320E-01
   0.859E+01 -.373E+02 -.670E+03   -.902E+01 0.371E+02 0.668E+03   0.421E+00 0.278E+00 0.238E+01   0.152E-01 0.962E-02 0.466E-02
   0.170E+03 -.129E+02 0.167E+03   -.169E+03 0.127E+02 -.168E+03   -.126E+01 0.579E+00 0.625E+00   -.961E-02 -.311E-02 -.236E-01
   0.132E+03 0.792E+01 -.616E+03   -.131E+03 -.766E+01 0.613E+03   -.933E+00 -.254E+00 0.307E+01   -.134E-01 0.486E-02 0.621E-02
   0.117E+03 -.804E+01 -.807E+02   -.117E+03 0.688E+01 0.797E+02   -.372E+00 0.116E+01 0.986E+00   -.861E-02 0.271E-02 -.545E-02
   0.117E+03 -.559E+02 0.465E+03   -.115E+03 0.560E+02 -.462E+03   -.828E+00 -.213E+00 -.266E+01   -.193E-02 0.162E-02 -.140E-01
   -.104E+03 0.645E+02 -.161E+03   0.104E+03 -.641E+02 0.161E+03   0.193E+00 -.413E+00 0.576E+00   0.680E-02 -.332E-02 -.735E-02
   -.101E+03 0.598E+02 0.516E+03   0.999E+02 -.593E+02 -.513E+03   0.449E+00 -.521E+00 -.276E+01   0.238E-02 0.409E-03 -.128E-01
   0.752E+02 -.140E+02 0.152E+03   -.761E+02 0.136E+02 -.152E+03   0.878E+00 0.749E+00 -.433E+00   0.141E-02 -.113E-02 -.239E-01
   0.271E+02 -.374E+02 -.546E+03   -.280E+02 0.372E+02 0.544E+03   0.925E+00 0.196E+00 0.246E+01   0.230E-02 0.520E-02 0.510E-02
   -.122E+03 -.329E+01 -.451E+03   0.122E+03 0.339E+01 0.449E+03   0.420E+00 -.982E-01 0.218E+01   0.824E-02 -.110E-02 0.577E-02
   -.164E+03 0.682E+01 0.177E+03   0.163E+03 -.664E+01 -.178E+03   0.404E+00 -.384E+00 0.311E+00   0.111E-02 -.290E-03 -.229E-01
   -.150E+03 -.544E+01 0.472E+03   0.149E+03 0.542E+01 -.469E+03   0.661E+00 -.803E-01 -.257E+01   -.648E-03 -.244E-04 -.152E-01
   -.194E+03 -.174E+01 -.175E+03   0.193E+03 0.195E+01 0.175E+03   0.745E+00 -.207E+00 0.210E+00   0.914E-02 0.195E-02 -.360E-02
   0.789E+02 0.127E+01 0.162E+03   -.791E+02 -.853E+00 -.162E+03   0.323E-02 -.700E-01 -.378E-01   0.400E-02 0.921E-03 -.235E-01
   0.115E+03 0.347E+02 -.545E+03   -.114E+03 -.342E+02 0.543E+03   -.839E+00 -.507E+00 0.229E+01   0.131E-02 -.392E-02 0.580E-02
   0.520E+02 0.163E+01 -.177E+03   -.524E+02 -.139E+01 0.176E+03   0.440E+00 -.244E+00 0.715E+00   -.124E-02 -.564E-02 -.974E-02
   0.346E+02 -.112E+01 0.497E+03   -.352E+02 0.105E+01 -.494E+03   0.631E+00 0.275E-03 -.253E+01   0.495E-02 0.310E-02 -.158E-01
   0.124E+03 0.104E+02 0.155E+03   -.124E+03 -.107E+02 -.155E+03   -.685E+00 0.726E+00 -.485E+00   -.162E-02 -.176E-02 -.236E-01
   0.107E+03 0.302E+02 -.520E+03   -.106E+03 -.296E+02 0.518E+03   -.778E+00 -.540E+00 0.213E+01   -.123E-01 0.385E-02 0.525E-02
   0.128E+03 0.150E+02 0.173E+03   -.128E+03 -.144E+02 -.172E+03   0.756E-02 -.597E+00 -.658E+00   -.530E-02 0.211E-02 -.200E-01
   0.612E+02 -.521E+02 -.490E+03   -.620E+02 0.526E+02 0.488E+03   0.803E+00 -.527E+00 0.204E+01   -.156E-01 -.244E-02 0.432E-02
   0.126E+03 0.398E+02 0.424E+03   -.126E+03 -.396E+02 -.421E+03   0.201E+00 -.490E+00 -.281E+01   -.392E-02 -.157E-02 -.155E-01
   0.123E+03 0.255E+02 -.168E+03   -.123E+03 -.250E+02 0.168E+03   -.272E+00 -.467E+00 -.690E+00   -.123E-01 -.362E-02 -.160E-02
   -.982E+02 -.122E+01 0.481E+03   0.985E+02 0.122E+01 -.477E+03   -.505E+00 0.247E-01 -.306E+01   0.609E-03 -.109E-02 -.130E-01
   -.151E+03 -.544E-02 -.142E+03   0.151E+03 -.393E-01 0.143E+03   0.677E+00 0.463E-01 -.525E+00   0.503E-02 -.170E-02 -.513E-02
   0.129E+03 0.293E+02 0.449E+03   -.129E+03 -.295E+02 -.447E+03   -.217E+00 0.349E+00 -.249E+01   0.107E-02 0.177E-02 -.171E-01
   0.101E+03 -.516E+01 -.166E+03   -.101E+03 0.573E+01 0.166E+03   -.874E+00 -.571E+00 0.395E+00   -.142E-01 -.256E-02 -.686E-02
   0.206E+02 -.365E+01 -.517E+03   -.210E+02 0.270E+01 0.513E+03   0.399E+00 0.947E+00 0.323E+01   -.110E-01 -.258E-02 0.564E-02
   0.127E+03 -.569E+01 0.189E+03   -.128E+03 0.541E+01 -.189E+03   0.225E+00 0.199E+00 0.748E-01   -.140E-02 0.155E-02 -.218E-01
   0.439E+02 0.529E+01 0.136E+03   -.436E+02 -.526E+01 -.137E+03   -.386E+00 -.193E+00 0.742E-01   -.534E-02 0.153E-02 -.177E-01
   0.928E+01 0.693E+01 -.444E+03   -.949E+01 -.706E+01 0.441E+03   0.215E+00 0.133E+00 0.322E+01   -.315E-02 -.441E-02 0.337E-02
   -.398E+02 0.162E-01 0.435E+03   0.400E+02 0.308E+00 -.432E+03   -.397E-01 -.258E+00 -.271E+01   -.256E-02 0.146E-02 -.124E-01
   -.659E+02 -.802E+01 -.146E+03   0.658E+02 0.760E+01 0.146E+03   0.345E-01 0.420E+00 -.967E-01   0.216E-02 -.520E-03 -.255E-02
   0.527E+02 -.383E+01 0.415E+03   -.526E+02 0.319E+01 -.412E+03   -.360E-01 0.174E+00 -.315E+01   -.595E-02 -.306E-02 -.131E-01
   0.560E+02 0.108E+02 -.157E+03   -.554E+02 -.110E+02 0.157E+03   -.533E+00 0.152E+00 -.507E+00   -.555E-02 0.100E-02 -.160E-02
   -.684E+02 -.147E+01 0.163E+03   0.685E+02 0.169E+01 -.163E+03   0.629E-01 0.159E+00 0.123E+00   -.179E-02 0.967E-03 -.191E-01
   -.455E+02 -.502E+01 -.427E+03   0.458E+02 0.524E+01 0.424E+03   -.378E+00 -.221E+00 0.284E+01   0.651E-02 0.968E-03 0.358E-02
   0.411E+02 0.176E+01 0.431E+03   -.405E+02 -.162E+01 -.427E+03   -.809E+00 -.297E+00 -.318E+01   -.375E-02 0.291E-02 -.136E-01
   0.760E+02 -.291E+02 -.106E+03   -.759E+02 0.294E+02 0.106E+03   -.984E-01 -.337E+00 0.899E-01   -.427E-02 0.465E-03 0.123E-03
   -.916E+02 -.863E+00 0.134E+03   0.913E+02 0.743E+00 -.135E+03   0.318E+00 0.142E+00 0.104E+00   0.123E-03 -.859E-03 -.193E-01
   -.956E+02 -.300E+01 -.468E+03   0.948E+02 0.226E+01 0.465E+03   0.844E+00 0.743E+00 0.361E+01   0.311E-02 -.242E-03 0.277E-02
   0.710E+02 0.233E+02 -.452E+03   -.702E+02 -.232E+02 0.449E+03   -.718E+00 -.975E-01 0.255E+01   -.445E-02 0.451E-02 0.326E-02
   0.521E+02 -.848E+01 0.168E+03   -.516E+02 0.823E+01 -.169E+03   -.543E+00 0.583E+00 0.131E+00   -.637E-02 -.136E-02 -.175E-01
   -.141E+03 -.429E+02 0.512E+03   0.141E+03 0.423E+02 -.508E+03   0.812E+00 0.413E-01 -.331E+01   0.446E-02 -.129E-03 -.143E-01
   -.145E+03 -.419E+02 -.140E+03   0.144E+03 0.414E+02 0.141E+03   0.233E+00 0.504E+00 -.812E+00   0.711E-02 0.311E-02 -.966E-02
   -.156E+03 0.474E+01 0.161E+03   0.155E+03 -.479E+01 -.162E+03   0.789E+00 0.448E+00 0.420E+00   0.486E-02 0.166E-03 -.232E-01
   -.128E+03 0.769E+01 -.466E+03   0.128E+03 -.695E+01 0.463E+03   0.307E+00 -.741E+00 0.320E+01   0.714E-02 0.675E-03 0.344E-02
   0.107E+03 -.170E+02 -.483E+03   -.106E+03 0.166E+02 0.483E+03   -.692E+00 0.394E+00 -.243E+00   -.207E-01 0.852E-02 0.128E-01
   -.219E+00 0.599E+00 0.684E+01   -.142E-13 0.306E-12 0.114E-12   0.121E+00 -.661E+00 -.596E+01   0.105E+00 0.314E-01 -.878E+00

 POSITION                                       TOTAL-FORCE (eV/Angst)
      8.57631      8.29685     10.39845        -0.096427     -0.163801      0.003019
      8.55341      3.75719     15.12486        -0.006201     -0.000800     -0.002806
      8.50325      6.07142     17.29176        -0.001766      0.006120      0.005230
      8.51616      0.79995     12.43874         0.013923     -0.125954     -0.247395
     13.50452      6.11730     15.33110        -0.003156     -0.003018      0.000812
     13.49094      1.15316     10.44749        -0.013550     -0.428617     -0.042521
     10.03344      3.28428     12.67411        -0.027850      0.404575     -0.509277
      9.92760      8.58015     17.17777         0.001547     -0.004760      0.002150
      7.12524      5.81577     10.15765        -0.177734     -0.469705      0.871815
      7.07119      1.27614     14.92009        -0.000555     -0.004121     -0.001790
      8.51222      3.28036     10.20450         0.260808      0.087094      0.728451
      8.51332      8.35717     14.88678        -0.000578      0.001069     -0.003024
     10.22263      8.06723     12.77991         0.329309      0.275146     -0.486764
     10.20911      3.73759     17.37005         0.000680      0.000423     -0.001041
      5.42664      8.10481     10.20639         0.293900      0.048439      0.952596
      5.39328      3.55001     14.99990        -0.002201     -0.000769      0.000770
      8.52843      5.75423     12.65640         0.119708     -0.155970     -0.028123
      8.52368      1.41105     17.22692         0.001860      0.002388      0.000234
      3.84829      7.97317     12.47259        -0.416751      0.374371     -0.403793
      3.92621      3.61946     17.20895        -0.003197      0.005481      0.000245
      3.83136      5.69259     14.80900        -0.002648      0.002462      0.000018
      3.90063      0.73891     10.00000         0.497530     -0.152656      0.377271
     10.14566      6.06298     14.93867         0.001798      0.003017      0.001295
     10.19112      1.10470     10.13736        -0.221791      0.016717      0.370594
      6.82945      7.99424     12.66670        -0.029419      0.288360     -0.375109
      6.83854      3.61690     17.33763         0.001653      0.000770      0.001435
     11.53628      6.20098     17.25185        -0.000106      0.002926     -0.002790
     11.66772      1.05372     12.57547        -0.047608     -0.206685     -0.672931
     11.73919      3.33868     10.41199        -0.291282     -0.098572      0.585351
     11.75133      8.30231     15.28539         0.003741      0.003305      0.002557
      7.18522      3.24644     12.75390        -0.187650      0.351070     -0.501062
      7.12866      8.55633     17.22062         0.001977      0.002626      0.002584
      6.87309      5.99001     14.92726         0.001299     -0.004090     -0.003383
      6.87795      0.97560     10.08695        -0.045935     -0.062291      0.140120
      5.51084      5.55012     12.48419         0.003178      0.374013     -0.361723
      5.46024      1.27142     17.17434         0.002305      0.006954      0.004257
      3.51249      3.50019     12.83519        -0.075374     -0.009421     -0.542387
      3.25158      8.82400     17.42248        -0.000125     -0.000484     -0.002838
      3.46798      5.87237     10.40868         0.094549     -0.225039     -0.112289
      3.34055      1.29505     15.24432        -0.001119      0.004889     -0.004908
     11.91771      8.21633     10.24534        -0.215907      0.029886      0.703376
     11.91268      3.63775     15.09970         0.002599      0.000357     -0.007297
      5.24135      3.36543     10.32679         0.206095      0.093154      0.142989
      5.16847      8.38136     15.15223        -0.005108     -0.001037     -0.002876
      5.27197      6.15011     17.35204        -0.005563      0.001713     -0.004637
      5.28930      0.99064     12.60849         0.095477     -0.081397     -0.295055
      1.60538      5.84491     12.85122        -0.089608     -0.157353     -0.586886
      1.44444      1.88256     17.59837        -0.000456     -0.000843     -0.002142
     13.72038      5.67134     10.18293         0.210125      0.068426      0.711477
     13.69613      1.07278     15.10972        -0.002425      0.003482     -0.004141
      1.63456      8.33987     10.36453        -0.033651     -0.464924      0.142601
      1.62430      3.78129     15.21248         0.004024      0.003792      0.000697
     13.76831      3.16119     12.53308         0.129057      0.379258     -0.354324
      0.06595      8.42159     17.31019        -0.005622     -0.000657     -0.000877
      1.99440      3.17314     10.17666        -0.142383     -0.159545      0.687269
      1.93374      8.06363     14.99165         0.003711     -0.001154      0.005922
     13.48051      8.37930     12.86886        -0.059277      0.021003     -0.379823
     13.15970      4.09788     17.82315        -0.000029      0.000557     -0.000437
      2.02521      5.95657     17.30359        -0.001649      0.003027     -0.002714
      2.02729      0.87737     12.46815        -0.006660      0.334614     -0.269710
     10.07171      5.79402     10.14663         0.122028     -0.618362      0.132710
     10.12817      1.23371     14.91100         0.000047     -0.000705     -0.003347
     11.97051      5.66181     12.67660        -0.176945      0.395609     -0.361116
     11.81884      1.33125     17.50384        -0.001228      0.001992      0.002348
      3.58708      7.16924     16.26490        -0.003390      0.003649      0.001139
    total drift:                                0.006665     -0.031015      0.000828

  FREE ENERGIE OF THE ION-ELECTRON SYSTEM (eV)
  free  energy   TOTEN  =      -514.94362534 eV

  energy  without entropy=     -514.94404799  energy(sigma->0) =     -514.94373100

 d Force = 0.1216889E-04[ 0.885E-05, 0.155E-04]  d Energy = 0.1695377E-03-0.157E-03
 d Force = 0.5875734E-04[ 0.543E-04, 0.632E-04]  d Ewald  = 0.5875762E-04-0.291E-09

 Steepest descent step on ions:
 trial-energy change:   -0.000170  1 .order   -0.000012   -0.000015   -0.000009
  (g-gl).g = 0.155E-04      g.g   = 0.155E-04  gl.gl    = 0.000E+00
 g(Force)  = 0.155E-04   g(Stress)= 0.000E+00 ortho     = 0.000E+00
 gamma     =   0.00000
 trial     =   1.00000
 opt step  =   2.33332  (harmonic =   2.33332) maximal distance =0.00021611
 next E    =  -514.943474   (d E  =  -0.00002)

 reached required accuracy - stopping structural energy minimisation