 vasp.5.4.1 05Feb16 (build Mar 19 2020 08:54:17) complex

 executed on           IFC91_ompi date 2021.11.11  12:05:27

 INCAR:
 POTCAR:    PAW_PBE Al 04Jan2001
 POTCAR:    PAW_PBE Nb_sv 25May2007
 POTCAR:    PAW_PBE Ta 17Jan2003
 POTCAR:    PAW_PBE Ti 08Apr2002
 POTCAR:   PAW_PBE Zr 08Apr2002
 POTCAR:    PAW_PBE O 08Apr2002
 POTCAR:    PAW_PBE Al 04Jan2001
   VRHFIN =Al: s2p1

   TITEL  = PAW_PBE Al 04Jan2001
   POMASS =   26.981; ZVAL   =    3.000    mass and valenz
   ENMAX  =  240.300; ENMIN  =  180.225 eV

 POTCAR:    PAW_PBE Nb_sv 25May2007
   VRHFIN =Nb: 4p5s4d

   TITEL  = PAW_PBE Nb_sv 25May2007
   POMASS =   92.910; ZVAL   =   13.000    mass and valenz
   ENMAX  =  293.235; ENMIN  =  219.927 eV

 POTCAR:    PAW_PBE Ta 17Jan2003
   VRHFIN =Ta:  6s5d

   TITEL  = PAW_PBE Ta 17Jan2003
   POMASS =  180.948; ZVAL   =    5.000    mass and valenz
   ENMAX  =  223.667; ENMIN  =  167.750 eV

 POTCAR:    PAW_PBE Ti 08Apr2002
   VRHFIN =Ti: d3 s1

   TITEL  = PAW_PBE Ti 08Apr2002
   POMASS =   47.880; ZVAL   =    4.000    mass and valenz
   ENMAX  =  178.330; ENMIN  =  133.747 eV

 POTCAR:   PAW_PBE Zr 08Apr2002
   VRHFIN =Zr: 5s4d5p

   TITEL  = PAW_PBE Zr 08Apr2002
   POMASS =   91.224; ZVAL   =    4.000    mass and valenz
   ENMAX  =  154.632; ENMIN  =  115.974 eV
   QCUT   =   -3.371; QGAM   =    6.742    optimization parameters

   Description
     l     E      TYP  RCUT    TYP  RCUT
     2   .000     23  3.000
     2   .000     23  3.000
     0   .000     23  3.000
     0  2.000     23  3.000
     1  -.400     23  3.000
     3   .000      7   .000

 POTCAR:    PAW_PBE O 08Apr2002
   VRHFIN =O: s2p4

   TITEL  = PAW_PBE O 08Apr2002
   POMASS =   16.000; ZVAL   =    6.000    mass and valenz
   ENMAX  =  400.000; ENMIN  =  300.000 eV

 WARNING: PSMAXN for non-local potential too small
          PSMAXN should be >   12.5490833729506       NTYP=           5
  PAW_PBE Al 04Jan2001                  :
  PAW_PBE Nb_sv 25May2007               :
  PAW_PBE Ta 17Jan2003                  :
  PAW_PBE Ti 08Apr2002                  :
 PAW_PBE Zr 08Apr2002                   :
  PAW_PBE O 08Apr2002                   :

 POSCAR: Al Nb Ta Ti Zr
  positions in direct lattice
  velocities in cartesian coordinates
 exchange correlation table for  LEXCH =        8
   RHO(1)=    0.500       N(1)  =     2000
   RHO(2)=  100.500       N(2)  =     4000

 ion  position               nearest neighbor table
   1  0.623  0.867  0.376-  34 2.83  25 2.88  24 2.88   9 2.88  13 2.90   4 2.91  61 2.93  15 3.16
                            41 3.35  17 3.40
   2  0.621  0.393  0.547-  31 2.78  14 2.79  33 2.80  26 2.80  23 2.81  10 2.90   7 2.90  62 2.98
                            18 3.15  16 3.17   3 3.17  17 3.18  42 3.36
   3  0.617  0.635  0.625-  32 2.84  23 2.87  33 2.87   8 2.89  14 2.89  26 2.97  27 3.04   2 3.17
                            45 3.23
   4  0.618  0.084  0.450-  31 2.80  24 2.86  34 2.87  13 2.88   1 2.91  10 2.91  25 2.92   7 2.92
                            62 2.98  28 3.16  12 3.17  46 3.24
   5  0.981  0.640  0.554-  27 2.75  30 2.80  42 2.96  56 2.96  52 3.01  59 3.03  54 3.06  63 3.10
                            47 3.12  58 3.23  57 3.34
   6  0.980  0.121  0.378-  29 2.80  28 2.80  53 2.91  41 2.96  51 3.05  55 3.05  60 3.08  57 3.37

   7  0.729  0.343  0.458-  28 2.77  29 2.83  31 2.85  17 2.89  11 2.90   2 2.90   4 2.92  62 3.04
                            63 3.07  42 3.09
   8  0.721  0.897  0.621-  30 2.64  12 2.70  18 2.78  32 2.80  27 2.87   3 2.89  64 3.01  62 3.18

   9  0.517  0.608  0.367-  35 2.84  15 2.85  17 2.87   1 2.88  11 2.89  61 2.95  43 3.10
  10  0.513  0.133  0.539-  18 2.73  36 2.77  16 2.83  12 2.87   2 2.90   4 2.91  31 2.93  46 2.93
                            62 3.06  44 3.12
  11  0.618  0.343  0.369-  24 2.75  34 2.83  31 2.87   9 2.89   7 2.90  61 2.96  43 3.27
  12  0.618  0.874  0.538-   8 2.70  32 2.72  13 2.73  25 2.81  23 2.82  10 2.87  33 2.88  62 2.93
                             4 3.17  44 3.36
  13  0.742  0.843  0.462-  12 2.73  17 2.87   4 2.88   1 2.90  28 2.94  30 2.94  23 2.95  63 2.98
                            41 3.05  57 3.27  62 3.47
  14  0.741  0.391  0.628-   2 2.79  27 2.80  42 2.84  18 2.88   3 2.89  64 2.90  58 3.01
  15  0.394  0.847  0.369-  22 2.68  19 2.76  25 2.83  34 2.84   9 2.85  39 2.98   1 3.16  46 3.43

  16  0.392  0.371  0.542-  20 2.65  21 2.66  26 2.75  10 2.83  33 2.85  37 2.87  31 2.89  40 3.06
                             2 3.17
  17  0.619  0.602  0.458-  25 2.81  23 2.81  33 2.82  31 2.85   9 2.87  13 2.87   7 2.89  61 2.95
                            35 3.03   2 3.18   1 3.40  63 3.44
  18  0.619  0.148  0.623-  10 2.73   8 2.78  26 2.78  32 2.79  62 2.82  14 2.88  36 3.07   2 3.15
                            64 3.31
  19  0.279  0.834  0.451-  15 2.76  35 2.94  46 2.96  39 2.97  25 2.99  44 3.02  60 3.07  51 3.08
                            47 3.12  56 3.17  21 3.27
  20  0.285  0.378  0.622-  16 2.65  36 2.80  45 2.87  26 2.92  59 3.01  52 3.05  48 3.05  40 3.10
                            21 3.17
  21  0.278  0.595  0.535-  16 2.66  35 2.87  52 2.95  45 2.96  37 2.97  47 2.97  44 3.02  56 3.04
                            33 3.06  59 3.09  20 3.17  19 3.27
  22  0.283  0.077  0.361-  15 2.68  46 2.97  43 2.97  34 2.99  51 3.02  55 3.10  60 3.10
  23  0.737  0.634  0.540-  27 2.70  30 2.78   2 2.81  17 2.81  12 2.82   3 2.87  63 2.93  13 2.95
                            42 3.00
  24  0.740  0.115  0.366-  29 2.73  11 2.75  28 2.85   4 2.86   1 2.88  41 3.00
  25  0.496  0.836  0.458-  35 2.78  12 2.81  17 2.81  15 2.83   1 2.88   4 2.92  19 2.99  46 2.99
                            44 3.01  33 3.02
  26  0.497  0.378  0.627-  36 2.73  16 2.75  18 2.78   2 2.80  20 2.92   3 2.97  45 2.98
  27  0.838  0.648  0.624-  23 2.70  58 2.72   5 2.75  14 2.80   8 2.87  30 2.89   3 3.04  54 3.20
                            42 3.37
  28  0.847  0.110  0.455-   7 2.77  62 2.80   6 2.80  24 2.85  57 2.90  13 2.94  53 2.98  29 3.15
                             4 3.16  50 3.25  41 3.36
  29  0.852  0.349  0.376-  24 2.73   6 2.80   7 2.83  53 2.94  61 2.98  49 3.07  28 3.15  63 3.25

  30  0.853  0.868  0.553-   8 2.64  23 2.78   5 2.80  27 2.89  54 2.91  13 2.94  57 2.97  62 3.00
                            50 3.04  64 3.41
  31  0.522  0.339  0.461-   2 2.78   4 2.80  17 2.85   7 2.85  35 2.86  11 2.87  16 2.89  10 2.93
                            46 2.95  43 3.11
  32  0.518  0.895  0.623-  12 2.72  18 2.79   8 2.80  36 2.83   3 2.84  44 2.85  45 3.04
  33  0.499  0.626  0.540-   2 2.80  17 2.82  35 2.83  16 2.85   3 2.87  12 2.88  45 2.91  44 2.95
                            25 3.02  21 3.06
  34  0.499  0.102  0.365-  11 2.83   1 2.83  15 2.84   4 2.87  43 2.91  46 2.98  22 2.99
  35  0.400  0.580  0.451-  25 2.78  33 2.83   9 2.84  31 2.86  21 2.87  37 2.88  39 2.93  19 2.94
                            17 3.03  43 3.08
  36  0.396  0.133  0.621-  26 2.73  10 2.77  20 2.80  32 2.83  40 2.87  38 3.00  18 3.07  44 3.19

  37  0.255  0.366  0.464-  16 2.87  35 2.88  21 2.97  47 3.02  60 3.04  52 3.05  43 3.05  55 3.08
                            46 3.08  40 3.27  39 3.39
  38  0.236  0.923  0.630-  65 1.86  56 2.87  40 2.98  36 3.00  44 3.00  59 3.12  48 3.19  54 3.21
                            45 3.35
  39  0.252  0.614  0.376-  35 2.93  19 2.97  15 2.98  47 3.07  43 3.07  51 3.07  55 3.08  37 3.39
                            49 3.53
  40  0.243  0.135  0.551-  36 2.87  38 2.98  52 3.02  16 3.06  48 3.08  44 3.08  20 3.10  60 3.10
                            56 3.14  37 3.27  46 3.29  50 3.43
  41  0.865  0.859  0.370-   6 2.96  24 3.00  61 3.05  13 3.05  57 3.06  49 3.12   1 3.35  28 3.36
                            51 3.49  63 3.53
  42  0.865  0.380  0.546-  14 2.84   5 2.96  62 3.00  23 3.00  58 3.03   7 3.09  50 3.12  63 3.16
                            53 3.20  64 3.33   2 3.36  27 3.37  52 3.49
  43  0.381  0.352  0.373-  34 2.91  22 2.97  37 3.05  39 3.07  35 3.08   9 3.10  31 3.11  55 3.26
                            11 3.27  46 3.29
  44  0.375  0.876  0.548-  32 2.85  33 2.95  38 3.00  25 3.01  19 3.02  21 3.02  40 3.08  10 3.12
                            45 3.14  36 3.19  56 3.25  46 3.35  12 3.36
  45  0.383  0.643  0.627-  65 2.14  20 2.87  33 2.91  21 2.96  26 2.98  32 3.04  44 3.14   3 3.23
                            59 3.25  38 3.35
  46  0.384  0.104  0.456-  10 2.93  31 2.95  19 2.96  22 2.97  34 2.98  25 2.99  37 3.08   4 3.24
                            60 3.27  40 3.29  43 3.29  44 3.35  15 3.43
  47  0.117  0.611  0.465-  21 2.97  37 3.02  39 3.07  56 3.10  19 3.12   5 3.12  52 3.14  53 3.14
                            49 3.15  57 3.17  63 3.42  51 3.52  55 3.80
  48  0.105  0.197  0.636-  50 3.03  58 3.03  20 3.05  52 3.05  40 3.08  38 3.19  54 3.34  64 3.44

  49  0.996  0.593  0.368-  63 3.05  29 3.07  41 3.12  47 3.15  51 3.16  55 3.23  53 3.44  39 3.53
                            61 3.65  57 3.82
  50  0.995  0.112  0.546-  48 3.03  30 3.04  64 3.05  42 3.12  54 3.13  57 3.19  52 3.20  28 3.25
                            56 3.27  53 3.32  60 3.38  40 3.43  62 3.58
  51  0.119  0.872  0.375-  60 3.00  22 3.02   6 3.05  39 3.07  19 3.08  57 3.16  49 3.16  41 3.49
                            47 3.52
  52  0.118  0.395  0.550-  21 2.95   5 3.01  40 3.02  59 3.04  37 3.05  20 3.05  48 3.05  47 3.14
                            53 3.20  50 3.20  58 3.45  42 3.49
  53  1.000  0.331  0.453-   6 2.91  29 2.94  28 2.98  60 3.06  63 3.08  55 3.09  47 3.14  52 3.20
                            42 3.20  50 3.32  49 3.44
  54  0.005  0.881  0.626-  30 2.91  56 3.00   5 3.06  50 3.13  59 3.15  27 3.20  64 3.20  38 3.21
                            48 3.34
  55  0.145  0.332  0.368-   6 3.05  37 3.08  39 3.08  53 3.09  22 3.10  49 3.23  60 3.24  43 3.26
                            47 3.80
  56  0.140  0.843  0.542-  38 2.87   5 2.96  54 3.00  21 3.04  57 3.09  47 3.10  59 3.13  40 3.14
                            19 3.17  44 3.25  50 3.27  60 3.47
  57  0.979  0.876  0.465-  28 2.90  30 2.97  41 3.06  56 3.09  63 3.11  60 3.13  51 3.16  47 3.17
                            50 3.19  13 3.27   5 3.34   6 3.37  49 3.82
  58  0.956  0.428  0.644-  27 2.72  14 3.01  42 3.03  48 3.03  64 3.09   5 3.23  59 3.27  52 3.45

  59  0.147  0.623  0.626-  65 2.17  20 3.01   5 3.03  52 3.04  21 3.09  38 3.12  56 3.13  54 3.15
                            45 3.25  58 3.27
  60  0.147  0.092  0.451-  51 3.00  37 3.04  53 3.06  19 3.07   6 3.08  40 3.10  22 3.10  57 3.13
                            55 3.24  46 3.27  50 3.38  56 3.47
  61  0.731  0.606  0.367-   1 2.93  17 2.95   9 2.95  11 2.96  29 2.98  41 3.05  63 3.17  49 3.65

  62  0.735  0.129  0.539-  28 2.80  18 2.82  12 2.93   2 2.98   4 2.98  42 3.00  30 3.00   7 3.04
                            10 3.06  64 3.10   8 3.18  13 3.47  50 3.58
  63  0.869  0.592  0.458-  23 2.93  13 2.98  49 3.05   7 3.07  53 3.08   5 3.10  57 3.11  42 3.16
                            61 3.17  29 3.25  47 3.42  17 3.44  41 3.53
  64  0.858  0.139  0.633-  14 2.90   8 3.01  50 3.05  58 3.09  62 3.10  54 3.20  18 3.31  42 3.33
                            30 3.41  48 3.44
[...]
    212       0.0905      0.00000
    213       0.1175      0.00000
    214       0.1187      0.00000
    215       0.1503      0.00000
    216       0.1677      0.00000

 soft charge-density along one line, spin component           1
         0         1         2         3         4         5         6         7         8         9
 total charge-density along one line

------------------------ aborting loop because EDIFF is reached ----------------------------------------

  FORCE on cell =-STRESS in cart. coord.  units (eV):
  Direction    XX          YY          ZZ          XY          YZ          ZX
  Alpha Z   518.63607   518.63607   518.63607
  Ewald   77180.73714 82412.00252-88397.01676  -819.04747    51.57466   555.47916
  Hartree 81666.37942 86650.92196-78142.73287  -643.84000    27.38332   516.88294
  E(xc)   -1469.74418 -1472.80041 -1461.03717    -0.26764    -0.54443    -0.27713
  Local  ************************162899.21802  1461.42764   -77.04951 -1071.07399
  n-local   -41.74959   -45.14644   -75.56875     8.65479    -0.26364     1.27030
  augment   442.32156   443.10306   438.64361    -1.03766     0.36210    -0.12777
  Kinetic  4193.47391  4185.80760  4204.09629    -7.41654     4.40006    -3.58755
  Fock        0.00000     0.00000     0.00000     0.00000     0.00000     0.00000
  Total     -38.22981   -30.80046   -15.76155    -1.52689     5.86255    -1.43403
  in kB     -16.81056   -13.54370    -6.93073    -0.67141     2.57790    -0.63058

 VOLUME and BASIS-vectors are now :
  energy-cutoff  :      600.00
  volume of cell :     3643.60
      direct lattice vectors                 reciprocal lattice vectors
    13.771350861  0.000000000  0.000000000     0.072614518  0.000000000  0.000000000
     0.000000000  9.564481735  0.000000000     0.000000000  0.104553496  0.000000000
     0.000000000  0.000000000 27.662570434     0.000000000  0.000000000  0.036149931

  length of vectors
    13.771350861  9.564481735 27.662570434     0.072614518  0.104553496  0.036149931

 FORCES acting on ions
    electron-ion (+dipol)            ewald-force                    non-local-force                 convergence-correction
   -.469E+02 -.339E+02 0.374E+03   0.467E+02 0.336E+02 -.373E+03   0.998E-01 0.971E-01 -.798E+00   0.156E-01 0.670E-02 -.368E-02
   -.181E+02 -.351E+02 -.141E+03   0.179E+02 0.351E+02 0.141E+03   0.132E+00 -.157E-01 0.101E+00   0.127E-01 -.260E-02 -.188E-01
   0.354E+02 0.209E+02 -.376E+03   -.350E+02 -.206E+02 0.375E+03   -.456E+00 -.348E+00 0.119E+01   0.928E-02 -.178E-02 -.458E-02
   0.103E+01 0.600E+01 0.188E+03   -.110E+01 -.589E+01 -.188E+03   0.620E-01 -.278E+00 -.845E+00   0.140E-01 0.329E-02 -.189E-01
   -.617E+02 0.749E+01 -.124E+03   0.612E+02 -.701E+01 0.125E+03   0.489E+00 -.472E+00 -.101E+01   -.525E-02 -.418E-02 -.151E-01
   -.465E+02 0.476E+01 0.316E+03   0.459E+02 -.421E+01 -.314E+03   0.671E+00 -.974E+00 -.226E+01   -.176E-01 0.196E-02 -.381E-02
   -.382E+03 -.772E+01 0.417E+03   0.381E+03 0.850E+01 -.418E+03   0.120E+00 -.360E+00 0.922E+00   0.258E-01 -.130E-01 -.856E-01
   -.278E+03 0.310E+02 -.167E+04   0.276E+03 -.301E+02 0.166E+04   0.122E+01 -.856E+00 0.408E+01   0.205E-01 0.144E-02 -.262E-01
   0.101E+03 -.100E+02 0.160E+04   -.101E+03 0.892E+01 -.160E+04   -.546E+00 0.607E+00 -.429E+01   0.556E-01 -.992E-02 -.132E-01
   0.215E+03 0.111E+02 -.444E+03   -.215E+03 -.112E+02 0.445E+03   0.971E-01 0.283E-01 -.132E+01   0.487E-01 -.844E-03 -.787E-01
   -.550E+02 0.137E+03 0.168E+04   0.557E+02 -.137E+03 -.167E+04   -.536E+00 -.407E+00 -.278E+01   0.710E-01 -.369E-01 -.363E-02
   0.109E+03 0.130E+03 -.439E+03   -.108E+03 -.130E+03 0.440E+03   -.648E+00 0.135E+00 -.250E+00   0.528E-01 0.712E-02 -.841E-01
   -.417E+03 0.589E+00 0.684E+03   0.418E+03 -.177E+01 -.683E+03   -.768E+00 0.146E+01 -.153E+01   0.185E-01 0.109E-01 -.852E-01
   -.159E+03 -.344E+02 -.152E+04   0.161E+03 0.339E+02 0.152E+04   -.154E+01 0.518E+00 0.293E+01   0.236E-01 -.993E-02 -.359E-01
   0.299E+03 -.116E+03 0.151E+04   -.299E+03 0.116E+03 -.150E+04   0.247E+00 -.377E+00 -.419E+01   0.296E-01 0.968E-02 -.222E-01
   0.360E+03 -.108E+03 -.454E+03   -.361E+03 0.107E+03 0.455E+03   0.192E+00 0.264E+00 -.719E+00   0.274E-01 -.164E-01 -.781E-01
   -.132E+02 0.135E+01 0.166E+03   0.127E+02 -.129E+01 -.166E+03   0.548E+00 -.222E+00 0.545E-01   0.210E-01 -.469E-02 -.265E-01
   0.938E+01 -.347E+02 -.665E+03   -.996E+01 0.346E+02 0.663E+03   0.562E+00 0.392E-01 0.246E+01   0.184E-01 0.277E-02 -.117E-01
   0.173E+03 -.739E+01 0.149E+03   -.172E+03 0.720E+01 -.151E+03   -.129E+01 0.520E+00 0.898E+00   -.485E-02 0.248E-02 -.204E-01
   0.134E+03 0.723E+01 -.577E+03   -.133E+03 -.698E+01 0.574E+03   -.770E+00 -.253E+00 0.306E+01   -.148E-01 0.191E-03 -.259E-02
   0.123E+03 -.545E+02 -.124E+03   -.123E+03 0.543E+02 0.124E+03   -.303E+00 0.218E+00 -.470E-01   -.101E-01 -.180E-03 -.176E-01
   0.117E+03 -.550E+02 0.461E+03   -.116E+03 0.551E+02 -.458E+03   -.834E+00 -.226E+00 -.268E+01   -.233E-02 0.140E-02 -.783E-02
   -.102E+03 0.664E+02 -.158E+03   0.102E+03 -.659E+02 0.157E+03   0.126E+00 -.427E+00 0.560E+00   0.364E-02 -.299E-02 -.261E-01
   -.101E+03 0.599E+02 0.515E+03   0.999E+02 -.593E+02 -.512E+03   0.463E+00 -.509E+00 -.275E+01   0.924E-02 0.370E-02 -.163E-02
   0.823E+02 -.125E+02 0.149E+03   -.833E+02 0.119E+02 -.149E+03   0.873E+00 0.798E+00 -.393E+00   0.173E-01 0.301E-02 -.191E-01
   0.331E+02 -.408E+02 -.531E+03   -.336E+02 0.407E+02 0.529E+03   0.486E+00 0.746E-01 0.226E+01   0.125E-01 0.390E-02 -.355E-02
   -.125E+03 -.254E+01 -.447E+03   0.124E+03 0.269E+01 0.445E+03   0.458E+00 -.151E+00 0.221E+01   0.192E-03 -.139E-02 -.105E-01
   -.165E+03 0.690E+01 0.178E+03   0.165E+03 -.676E+01 -.179E+03   0.353E+00 -.318E+00 0.270E+00   -.779E-02 0.345E-02 -.281E-01
   -.150E+03 -.560E+01 0.471E+03   0.150E+03 0.558E+01 -.468E+03   0.654E+00 -.499E-01 -.256E+01   -.932E-02 -.763E-02 -.428E-02
   -.198E+03 -.940E+00 -.168E+03   0.198E+03 0.113E+01 0.168E+03   0.720E+00 -.191E+00 0.164E+00   -.471E-02 0.344E-02 -.249E-01
   0.798E+02 0.710E+00 0.164E+03   -.800E+02 -.284E+00 -.164E+03   0.154E-01 -.103E+00 -.508E-02   0.187E-01 -.231E-02 -.225E-01
   0.118E+03 0.345E+02 -.528E+03   -.117E+03 -.340E+02 0.526E+03   -.879E+00 -.429E+00 0.232E+01   0.871E-02 0.155E-02 -.712E-02
   0.675E+02 -.282E+01 -.176E+03   -.678E+02 0.310E+01 0.175E+03   0.289E+00 -.283E+00 0.605E+00   0.184E-01 0.115E-02 -.234E-01
   0.359E+02 -.673E+00 0.495E+03   -.366E+02 0.594E+00 -.492E+03   0.598E+00 0.193E-01 -.246E+01   0.224E-01 0.346E-02 -.442E-02
   0.131E+03 0.564E+01 0.148E+03   -.131E+03 -.590E+01 -.148E+03   -.710E+00 0.680E+00 -.373E+00   0.121E-01 -.345E-02 -.207E-01
   0.110E+03 0.292E+02 -.514E+03   -.109E+03 -.291E+02 0.511E+03   -.480E+00 -.690E-01 0.241E+01   -.240E-02 -.983E-03 -.273E-02
   0.129E+03 0.948E+01 0.169E+03   -.129E+03 -.906E+01 -.169E+03   -.327E-01 -.459E+00 -.425E+00   -.698E-02 -.309E-02 -.186E-01
   0.606E+02 -.720E+02 -.400E+03   -.610E+02 0.714E+02 0.398E+03   0.451E+00 0.602E+00 0.224E+01   -.130E-01 0.572E-03 0.136E-02
   0.126E+03 0.388E+02 0.418E+03   -.126E+03 -.385E+02 -.415E+03   0.185E+00 -.513E+00 -.284E+01   -.751E-02 -.149E-02 -.914E-02
   0.123E+03 0.365E+02 -.160E+03   -.123E+03 -.359E+02 0.161E+03   -.264E+00 -.590E+00 -.715E+00   -.123E-01 0.451E-03 -.167E-01
   -.993E+02 -.109E+01 0.479E+03   0.996E+02 0.106E+01 -.475E+03   -.493E+00 0.381E-01 -.311E+01   -.917E-02 0.560E-02 -.333E-02
   -.152E+03 -.442E+00 -.140E+03   0.152E+03 0.379E+00 0.141E+03   0.634E+00 0.664E-01 -.504E+00   -.205E-02 -.213E-02 -.226E-01
   0.131E+03 0.286E+02 0.447E+03   -.130E+03 -.288E+02 -.444E+03   -.217E+00 0.341E+00 -.253E+01   0.101E-01 -.194E-02 -.645E-02
   0.135E+03 0.190E+02 -.176E+03   -.135E+03 -.188E+02 0.176E+03   -.431E+00 -.135E+00 0.192E-01   0.142E-02 0.534E-02 -.184E-01
   0.399E+01 0.927E+01 -.451E+03   -.588E+01 -.904E+01 0.448E+03   0.188E+01 -.230E+00 0.264E+01   -.413E-03 0.168E-02 0.429E-02
   0.131E+03 -.150E+01 0.187E+03   -.131E+03 0.130E+01 -.187E+03   0.248E+00 0.653E-01 0.573E-01   0.104E-01 0.246E-02 -.178E-01
   0.354E+02 0.413E+00 0.128E+03   -.352E+02 -.415E+00 -.129E+03   -.129E+00 -.287E-01 0.284E+00   -.192E-01 -.175E-02 -.197E-01
   0.838E+01 0.568E+01 -.429E+03   -.857E+01 -.586E+01 0.426E+03   0.200E+00 0.184E+00 0.314E+01   -.123E-01 0.201E-02 -.684E-02
   -.415E+02 -.375E+00 0.432E+03   0.418E+02 0.730E+00 -.429E+03   -.578E-01 -.266E+00 -.275E+01   -.174E-01 -.193E-02 -.359E-02
   -.723E+02 -.643E+01 -.141E+03   0.723E+02 0.604E+01 0.141E+03   0.654E-01 0.380E+00 -.158E+00   -.990E-02 0.471E-02 -.194E-01
   0.509E+02 -.309E+01 0.411E+03   -.509E+02 0.244E+01 -.408E+03   0.553E-02 0.203E+00 -.314E+01   -.171E-01 -.232E-03 -.727E-02
   0.456E+02 0.274E+01 -.148E+03   -.452E+02 -.311E+01 0.148E+03   -.428E+00 0.380E+00 -.562E+00   -.185E-01 -.380E-02 -.162E-01
   -.709E+02 -.220E+01 0.163E+03   0.710E+02 0.241E+01 -.163E+03   0.788E-01 0.117E+00 0.490E-01   -.182E-01 -.309E-03 -.181E-01
   -.555E+02 -.449E+01 -.413E+03   0.556E+02 0.476E+01 0.410E+03   -.840E-02 -.267E+00 0.294E+01   -.388E-02 0.377E-02 -.694E-02
   0.403E+02 0.125E+01 0.428E+03   -.396E+02 -.114E+01 -.424E+03   -.813E+00 -.274E+00 -.317E+01   -.160E-01 0.625E-03 -.592E-02
   0.330E+02 -.858E+01 -.128E+03   -.324E+02 0.868E+01 0.128E+03   -.547E+00 -.101E+00 -.330E+00   -.146E-01 0.438E-02 -.157E-01
   -.978E+02 0.503E+00 0.133E+03   0.974E+02 -.690E+00 -.134E+03   0.478E+00 0.218E+00 0.209E+00   -.138E-01 0.182E-02 -.219E-01
   -.965E+02 -.202E+01 -.460E+03   0.955E+02 0.134E+01 0.457E+03   0.998E+00 0.694E+00 0.367E+01   -.326E-02 -.382E-02 -.763E-02
   0.800E+02 0.298E+02 -.384E+03   -.781E+02 -.288E+02 0.382E+03   -.187E+01 -.956E+00 0.194E+01   -.122E-01 -.119E-02 -.151E-02
   0.497E+02 -.475E+01 0.165E+03   -.491E+02 0.458E+01 -.165E+03   -.559E+00 0.461E+00 0.191E+00   -.158E-01 0.152E-02 -.142E-01
   -.141E+03 -.430E+02 0.511E+03   0.140E+03 0.424E+02 -.507E+03   0.815E+00 0.413E-01 -.328E+01   0.114E-01 -.283E-02 -.140E-02
   -.144E+03 -.427E+02 -.138E+03   0.144E+03 0.422E+02 0.139E+03   0.206E+00 0.514E+00 -.793E+00   0.651E-02 0.406E-02 -.250E-01
   -.159E+03 0.454E+01 0.161E+03   0.158E+03 -.456E+01 -.162E+03   0.776E+00 0.431E+00 0.389E+00   -.538E-02 -.394E-02 -.223E-01
   -.128E+03 0.674E+01 -.463E+03   0.128E+03 -.602E+01 0.460E+03   0.293E+00 -.721E+00 0.319E+01   0.428E-03 0.459E-02 -.961E-02
   0.568E+02 0.180E+01 -.784E+03   -.569E+02 -.221E+01 0.799E+03   0.137E+00 0.416E+00 -.151E+02   0.156E-02 -.119E-01 0.197E-01
   -.161E+01 0.129E+01 0.243E+02   0.142E-12 -.344E-12 -.171E-11   0.131E+01 -.125E+01 -.231E+02   0.301E+00 -.443E-01 -.117E+01

 POSITION                                       TOTAL-FORCE (eV/Angst)
      8.57631      8.29685     10.39845        -0.088790     -0.161408      0.015713
      8.56316      3.75308     15.10972        -0.000714      0.001924      0.001819
      8.49409      6.09872     17.31056        -0.003661      0.003496     -0.001226
      8.51616      0.79995     12.43874         0.002956     -0.162917     -0.279246
     13.46941      6.11407     15.33093        -0.000318      0.000863     -0.001232
     13.49094      1.15316     10.44749        -0.013269     -0.425673     -0.041181
     10.03344      3.28428     12.67411        -0.030109      0.403311     -0.555947
      9.92888      8.56079     17.16315         0.003330      0.001162     -0.003726
      7.12524      5.81577     10.15765        -0.150776     -0.490306      0.867896
      7.07281      1.25761     14.92014        -0.003709     -0.003536      0.005990
      8.51222      3.28036     10.20450         0.275363      0.096120      0.699258
      8.50833      8.35453     14.87657        -0.001331      0.000602     -0.000988
     10.22263      8.06723     12.77991         0.292662      0.292237     -0.551233
     10.18957      3.74402     17.38435        -0.001766      0.002261     -0.000242
      5.42664      8.10481     10.20639         0.339671      0.051299      0.904026
      5.42136      3.53305     14.95389        -0.003712      0.004922      0.000723
      8.52843      5.75423     12.65640         0.053151     -0.161451     -0.091353
      8.52205      1.41335     17.24310        -0.003374      0.003855     -0.000209
      3.84829      7.97317     12.47259        -0.464117      0.327612     -0.247529
      3.85444      3.66228     17.07992         0.003240      0.003189     -0.002737
      3.80403      5.65776     14.92859         0.002763     -0.001611      0.001291
      3.90063      0.73891     10.00000         0.489845     -0.124462      0.358639
     10.12295      6.06182     14.93483        -0.000246      0.000624      0.000519
     10.19112      1.10470     10.13736        -0.245243      0.045938      0.382739
      6.82945      7.99424     12.66670        -0.071644      0.242616     -0.353867
      6.88220      3.66992     17.29068        -0.003471      0.003480     -0.001497
     11.49708      6.18263     17.26264        -0.002573      0.003992     -0.000704
     11.66772      1.05372     12.57547        -0.081944     -0.173005     -0.695221
     11.73919      3.33868     10.41199        -0.305355     -0.077269      0.590815
     11.72620      8.27325     15.25584        -0.002041      0.003002      0.001024
      7.18522      3.24644     12.75390        -0.157068      0.320657     -0.533005
      7.10929      8.58172     17.18180        -0.000380      0.001362      0.000969
      6.86571      5.98983     14.92414        -0.004315      0.002005      0.000972
      6.87795      0.97560     10.08695        -0.067837     -0.055934      0.166791
      5.51084      5.55012     12.48419        -0.030393      0.418690     -0.227730
      5.50475      1.38589     17.18012        -0.001299      0.001203     -0.002997
      3.51249      3.50019     12.83519        -0.112924     -0.045155     -0.556800
      3.33441      8.81433     17.46618        -0.005692      0.006554     -0.003791
      3.46798      5.87237     10.40868         0.083869     -0.236239     -0.079623
      3.35724      1.29814     15.21019        -0.002098      0.001486     -0.001331
     11.91771      8.21633     10.24534        -0.204355      0.011335      0.670737
     11.90216      3.63483     15.09712        -0.001286      0.000851     -0.001124
      5.24135      3.36543     10.32679         0.183307      0.084873      0.102883
      5.12550      8.33934     15.15417         0.000730      0.000340     -0.002305
      5.19442      6.26412     17.46669        -0.004982     -0.000781     -0.003687
      5.28930      0.99064     12.60849         0.055728     -0.131699     -0.353070
      1.60538      5.84491     12.85122         0.066957     -0.032918     -0.471284
      1.44455      1.82831     17.53211        -0.002808      0.004781     -0.002101
     13.72038      5.67134     10.18293         0.214207      0.087606      0.668063
     13.65980      1.06201     15.10089        -0.003184      0.000880     -0.002806
      1.63456      8.33987     10.36453        -0.028463     -0.443534      0.152303
      1.55884      3.75968     15.17254        -0.001734      0.000692     -0.001767
     13.76831      3.16119     12.53308         0.141689      0.325477     -0.407642
     -0.04745      8.44876     17.28868        -0.000768      0.003237     -0.000489
      1.99440      3.17314     10.17666        -0.112584     -0.156891      0.688509
      1.88258      8.07064     15.05201        -0.001467      0.001382      0.000266
     13.48051      8.37930     12.86886         0.072330      0.034102     -0.317055
     13.15462      4.06695     17.81588        -0.000020      0.004724      0.001999
      2.02602      6.04023     17.36467         0.003789      0.001096      0.000528
      2.02729      0.87737     12.46815         0.016244      0.292706     -0.289613
     10.07171      5.79402     10.14663         0.129762     -0.615202      0.146091
     10.11960      1.22713     14.90147         0.000329      0.001514     -0.001308
     11.97051      5.66181     12.67660        -0.205341      0.404363     -0.345830
     11.78014      1.33239     17.52132        -0.002721      0.002934     -0.001682
      3.51399      7.13444     18.39957        -0.002042     -0.007365      0.004612
    total drift:                                0.000860     -0.004135      0.010052

  FREE ENERGIE OF THE ION-ELECTRON SYSTEM (eV)
  free  energy   TOTEN  =      -515.42625660 eV

  energy  without entropy=     -515.42339607  energy(sigma->0) =     -515.42554147

 d Force = 0.3912733E-05[ 0.303E-05, 0.479E-05]  d Energy =-0.2609435E-05 0.652E-05
 d Force =-0.1966768E+00[-0.197E+00,-0.197E+00]  d Ewald  =-0.1966768E+00 0.684E-09

 reached required accuracy - stopping structural energy minimisation