 vasp.5.4.4.18Apr17-6-g9f103f2a35 (build Jan 21 2021 13:12:21) complex

 executed on             LinuxIFC date 2021.10.31  23:17:50

 INCAR:
 POTCAR:    PAW_PBE Al 04Jan2001
 POTCAR:    PAW_PBE Nb_sv 25May2007
 POTCAR:    PAW_PBE Ta 17Jan2003
 POTCAR:    PAW_PBE Ti 08Apr2002
 POTCAR:   PAW_PBE Zr 08Apr2002
 POTCAR:    PAW_PBE O 08Apr2002

 POTCAR:    PAW_PBE Al 04Jan2001
   VRHFIN =Al: s2p1

   TITEL  = PAW_PBE Al 04Jan2001
   POMASS =   26.981; ZVAL   =    3.000    mass and valenz
   ENMAX  =  240.300; ENMIN  =  180.225 eV

 POTCAR:    PAW_PBE Nb_sv 25May2007
   VRHFIN =Nb: 4p5s4d

   TITEL  = PAW_PBE Nb_sv 25May2007
   POMASS =   92.910; ZVAL   =   13.000    mass and valenz
   ENMAX  =  293.235; ENMIN  =  219.927 eV

 POTCAR:    PAW_PBE Ta 17Jan2003
   VRHFIN =Ta:  6s5d

   TITEL  = PAW_PBE Ta 17Jan2003
   POMASS =  180.948; ZVAL   =    5.000    mass and valenz
   ENMAX  =  223.667; ENMIN  =  167.750 eV

 POTCAR:    PAW_PBE Ti 08Apr2002
   VRHFIN =Ti: d3 s1

   TITEL  = PAW_PBE Ti 08Apr2002
   POMASS =   47.880; ZVAL   =    4.000    mass and valenz
   ENMAX  =  178.330; ENMIN  =  133.747 eV

 POTCAR:   PAW_PBE Zr 08Apr2002
   VRHFIN =Zr: 5s4d5p

   TITEL  = PAW_PBE Zr 08Apr2002
   POMASS =   91.224; ZVAL   =    4.000    mass and valenz
   ENMAX  =  154.632; ENMIN  =  115.974 eV
   QCUT   =   -3.371; QGAM   =    6.742    optimization parameters

   Description
     l     E      TYP  RCUT    TYP  RCUT
     2   .000     23  3.000
     2   .000     23  3.000
     0   .000     23  3.000
     0  2.000     23  3.000
     1  -.400     23  3.000
     3   .000      7   .000

 POTCAR:    PAW_PBE O 08Apr2002
   VRHFIN =O: s2p4

   TITEL  = PAW_PBE O 08Apr2002
   POMASS =   16.000; ZVAL   =    6.000    mass and valenz
   ENMAX  =  400.000; ENMIN  =  300.000 eV

 WARNING: PSMAXN for non-local potential too small
          PSMAXN should be >   12.5490833729506       NTYP=           5
  PAW_PBE Al 04Jan2001                  :
  PAW_PBE Nb_sv 25May2007               :
  PAW_PBE Ta 17Jan2003                  :
  PAW_PBE Ti 08Apr2002                  :
 PAW_PBE Zr 08Apr2002                   :
  PAW_PBE O 08Apr2002                   :

 POSCAR: Al Nb Ta Ti Zr
  positions in direct lattice
  velocities in cartesian coordinates
 exchange correlation table for  LEXCH =        8
   RHO(1)=    0.500       N(1)  =     2000
   RHO(2)=  100.500       N(2)  =     4000

 ion  position               nearest neighbor table
   1  0.623  0.867  0.376-  34 2.83  25 2.88  24 2.88   9 2.88  13 2.90   4 2.91  61 2.93  15 3.16
                            41 3.35  17 3.40
   2  0.623  0.393  0.547-  14 2.79  31 2.79  23 2.80  33 2.80  26 2.80   7 2.89  10 2.90  62 2.98
                            18 3.06  17 3.17  16 3.19   3 3.22  42 3.34
   3  0.618  0.638  0.626-  32 2.76  14 2.83  23 2.90  33 2.91   8 2.91  26 2.99  27 2.99  45 3.20
                             2 3.22
   4  0.618  0.084  0.450-  31 2.80  24 2.86  34 2.87  13 2.88   1 2.91  10 2.91  25 2.92   7 2.92
                            62 2.98  12 3.14  28 3.16  46 3.24
   5  0.975  0.641  0.551-  30 2.75  42 2.90  56 2.91  27 2.93  63 2.98  52 3.01  54 3.09  47 3.09
                            59 3.11  58 3.23  23 3.26  57 3.27
   6  0.980  0.121  0.378-  29 2.80  28 2.80  53 2.91  41 2.96  51 3.05  55 3.05  60 3.08  57 3.37

   7  0.729  0.343  0.458-  28 2.77  29 2.83  31 2.85   2 2.89  17 2.89  11 2.90   4 2.92  62 3.01
                            63 3.07  42 3.09
   8  0.725  0.900  0.620-  30 2.59  32 2.70  12 2.71  27 2.76  18 2.82   3 2.91  64 3.08  62 3.16

   9  0.517  0.608  0.367-  35 2.84  15 2.85  17 2.87   1 2.88  11 2.89  61 2.95  43 3.10
  10  0.515  0.133  0.540-  18 2.75  36 2.79  16 2.81  12 2.87   2 2.90   4 2.91  31 2.95  46 2.96
                            62 3.06  44 3.15
  11  0.618  0.343  0.369-  24 2.75  34 2.83  31 2.87   9 2.89   7 2.90  61 2.96  43 3.27
  12  0.621  0.874  0.537-  13 2.68   8 2.71  32 2.71  25 2.80  23 2.83  10 2.87  62 2.93  33 2.94
                             4 3.14  44 3.39
  13  0.742  0.843  0.462-  12 2.68  17 2.87   4 2.88   1 2.90  30 2.92  28 2.94  23 2.97  63 2.98
                            41 3.05  57 3.27  62 3.46
  14  0.744  0.405  0.627-  27 2.73   2 2.79  42 2.81   3 2.83  18 2.86  64 2.96  58 3.09
  15  0.394  0.847  0.369-  22 2.68  19 2.76  25 2.83  34 2.84   9 2.85  39 2.98   1 3.16  46 3.43

  16  0.392  0.367  0.543-  21 2.64  20 2.66  26 2.71  10 2.81  33 2.85  37 2.89  31 2.90  40 3.02
                             2 3.19
  17  0.619  0.602  0.458-  25 2.81  33 2.84  31 2.85  23 2.85   9 2.87  13 2.87   7 2.89  61 2.95
                            35 3.03   2 3.17   1 3.40  63 3.44
  18  0.627  0.159  0.622-  10 2.75  26 2.76  62 2.78   8 2.82  14 2.86  32 2.86   2 3.06  36 3.18
                            64 3.27
  19  0.279  0.834  0.451-  15 2.76  35 2.94  46 2.96  39 2.97  25 2.99  44 2.99  60 3.07  51 3.08
                            47 3.12  56 3.25
  20  0.280  0.370  0.621-  67 2.27  16 2.66  36 2.92  26 2.99  52 3.00  21 3.03  40 3.06  45 3.07
                            59 3.12  48 3.15
  21  0.279  0.590  0.543-  16 2.64  45 2.89  52 2.98  59 2.99  44 3.00  35 3.03  33 3.03  20 3.03
                            37 3.07  47 3.12  56 3.14
  22  0.283  0.077  0.361-  15 2.68  46 2.97  43 2.97  34 2.99  51 3.02  55 3.10  60 3.10
  23  0.739  0.633  0.541-  30 2.77   2 2.80  27 2.80  12 2.83  17 2.85   3 2.90  63 2.93  42 2.96
                            13 2.97   5 3.26
  24  0.740  0.115  0.366-  29 2.73  11 2.75  28 2.85   4 2.86   1 2.88  41 3.00
  25  0.496  0.836  0.458-  35 2.78  12 2.80  17 2.81  15 2.83   1 2.88   4 2.92  44 2.99  19 2.99
                            46 2.99  33 3.05
  26  0.497  0.378  0.626-  16 2.71  18 2.76   2 2.80  36 2.85   3 2.99  20 2.99  45 3.02
  27  0.834  0.660  0.630-  68 2.13  14 2.73   8 2.76  58 2.80  23 2.80   5 2.93  30 2.96   3 2.99
                            54 3.04
  28  0.847  0.110  0.455-   7 2.77  62 2.77   6 2.80  24 2.85  57 2.90  13 2.94  53 2.98  29 3.15
                             4 3.16  50 3.19  41 3.36
  29  0.852  0.349  0.376-  24 2.73   6 2.80   7 2.83  53 2.94  61 2.98  49 3.07  28 3.15  63 3.25

  30  0.853  0.869  0.552-   8 2.59   5 2.75  23 2.77  54 2.91  13 2.92  27 2.96  57 2.96  62 2.99
                            50 3.05
  31  0.522  0.339  0.461-   2 2.79   4 2.80  17 2.85   7 2.85  35 2.86  11 2.87  16 2.90  10 2.95
                            46 2.95  43 3.11
  32  0.529  0.896  0.623-  65 2.01   8 2.70  12 2.71   3 2.76  36 2.78  18 2.86  44 2.99  45 3.07

  33  0.498  0.624  0.540-   2 2.80  35 2.83  17 2.84  16 2.85   3 2.91  44 2.92  12 2.94  45 2.94
                            21 3.03  25 3.05
  34  0.499  0.102  0.365-  11 2.83   1 2.83  15 2.84   4 2.87  43 2.91  46 2.98  22 2.99
  35  0.400  0.580  0.451-  25 2.78  33 2.83   9 2.84  31 2.86  37 2.88  39 2.93  19 2.94  21 3.03
                            17 3.03  43 3.08
  36  0.398  0.117  0.622-  67 2.03  65 2.18  32 2.78  10 2.79  26 2.85  38 2.91  20 2.92  40 2.92
                            44 3.15  18 3.18
  37  0.255  0.366  0.464-  35 2.88  16 2.89  47 3.02  60 3.04  43 3.05  21 3.07  55 3.08  46 3.08
                            52 3.16  40 3.24  39 3.39
  38  0.239  0.918  0.628-  65 2.03  67 2.15  56 2.86  36 2.91  44 2.97  40 3.01  59 3.06  48 3.13
                            45 3.26  54 3.34
  39  0.252  0.614  0.376-  35 2.93  19 2.97  15 2.98  47 3.07  43 3.07  51 3.07  55 3.08  37 3.39
                            49 3.53
  40  0.245  0.133  0.549-  67 2.44  36 2.92  38 3.01  16 3.02  60 3.06  20 3.06  44 3.08  52 3.11
                            56 3.19  46 3.22  48 3.22  37 3.24  50 3.46
  41  0.865  0.859  0.370-   6 2.96  24 3.00  61 3.05  13 3.05  57 3.06  49 3.12   1 3.35  28 3.36
                            51 3.49  63 3.53
  42  0.865  0.383  0.546-  14 2.81   5 2.90  23 2.96  62 3.00   7 3.09  58 3.11  63 3.14  50 3.14
                            53 3.20   2 3.34  64 3.35  52 3.41
  43  0.381  0.352  0.373-  34 2.91  22 2.97  37 3.05  39 3.07  35 3.08   9 3.10  31 3.11  55 3.26
                            11 3.27  46 3.29
  44  0.376  0.872  0.547-  65 2.44  33 2.92  38 2.97  25 2.99  19 2.99  32 2.99  21 3.00  40 3.08
                            45 3.13  36 3.15  10 3.15  56 3.36  46 3.36  12 3.39
  45  0.386  0.651  0.630-  65 2.32  21 2.89  33 2.94  26 3.02  32 3.07  20 3.07  44 3.13   3 3.20
                            38 3.26  59 3.35
  46  0.384  0.104  0.456-  31 2.95  19 2.96  10 2.96  22 2.97  34 2.98  25 2.99  37 3.08  40 3.22
                             4 3.24  60 3.27  43 3.29  44 3.36  15 3.43
  47  0.117  0.611  0.465-  37 3.02  39 3.07   5 3.09  56 3.11  19 3.12  21 3.12  53 3.14  49 3.15
                            57 3.17  52 3.20  63 3.42  51 3.52  55 3.80
  48  0.100  0.174  0.639-  66 2.08  67 2.17  50 3.06  38 3.13  20 3.15  58 3.15  52 3.19  54 3.22
                            40 3.22  64 3.27
  49  0.996  0.593  0.368-  63 3.05  29 3.07  41 3.12  47 3.15  51 3.16  55 3.23  53 3.44  39 3.53
                            61 3.65  57 3.82
  50  0.994  0.113  0.544-  30 3.05  48 3.06  64 3.13  42 3.14  57 3.15  52 3.16  28 3.19  56 3.22
                            53 3.27  54 3.27  60 3.33  40 3.46  62 3.55
  51  0.119  0.872  0.375-  60 3.00  22 3.02   6 3.05  39 3.07  19 3.08  57 3.16  49 3.16  41 3.49
                            47 3.52
  52  0.112  0.395  0.553-  21 2.98  20 3.00   5 3.01  59 3.05  40 3.11  50 3.16  37 3.16  48 3.19
                            47 3.20  53 3.22  58 3.28  42 3.41
  53  1.000  0.331  0.453-   6 2.91  29 2.94  28 2.98  60 3.06  63 3.08  55 3.09  47 3.14  42 3.20
                            52 3.22  50 3.27  49 3.44
  54  0.998  0.872  0.628-  68 2.17  30 2.91  56 3.01  27 3.04  59 3.06   5 3.09  48 3.22  64 3.24
                            50 3.27  38 3.34
  55  0.145  0.332  0.368-   6 3.05  37 3.08  39 3.08  53 3.09  22 3.10  49 3.23  60 3.24  43 3.26
                            47 3.80
  56  0.133  0.842  0.543-  38 2.86   5 2.91  54 3.01  57 3.04  59 3.06  47 3.11  21 3.14  40 3.19
                            50 3.22  19 3.25  44 3.36  60 3.51
  57  0.979  0.876  0.465-  28 2.90  30 2.96  56 3.04  41 3.06  63 3.11  60 3.13  50 3.15  51 3.16
                            47 3.17   5 3.27  13 3.27   6 3.37  49 3.82
  58  0.965  0.440  0.645-  66 2.09  68 2.16  27 2.80  14 3.09  59 3.10  42 3.11  64 3.13  48 3.15
                             5 3.23  52 3.28
  59  0.143  0.629  0.626-  68 2.42  21 2.99  52 3.05  38 3.06  54 3.06  56 3.06  58 3.10   5 3.11
                            20 3.12  45 3.35
  60  0.147  0.092  0.451-  51 3.00  37 3.04  53 3.06  40 3.06  19 3.07   6 3.08  22 3.10  57 3.13
                            55 3.24  46 3.27  50 3.33  56 3.51
  61  0.731  0.606  0.367-   1 2.93  17 2.95   9 2.95  11 2.96  29 2.98  41 3.05  63 3.17  49 3.65

  62  0.737  0.130  0.538-  28 2.77  18 2.78  12 2.93   2 2.98   4 2.98  30 2.99  42 3.00   7 3.01
                            10 3.06   8 3.16  64 3.21  13 3.46  50 3.55
  63  0.869  0.592  0.458-  23 2.93  13 2.98   5 2.98  49 3.05   7 3.07  53 3.08  57 3.11  42 3.14
[...]
     13.72038      5.67134     10.18293         0.210880      0.116128      0.624510
     13.69243      1.07626     15.04619        -0.000372     -0.000256     -0.004075
      1.63456      8.33987     10.36453        -0.013332     -0.466200      0.193969
      1.53988      3.78161     15.29320        -0.002588     -0.001721      0.000696
     13.76831      3.16119     12.53308         0.126751      0.375204     -0.344732
     13.74991      8.33984     17.37446         0.002069      0.035050     -0.027795
      1.99440      3.17314     10.17666        -0.095382     -0.155518      0.717886
      1.83207      8.05250     15.02655        -0.001803      0.002143      0.001747
     13.48051      8.37930     12.86886         0.065882      0.075840     -0.355381
     13.28426      4.20677     17.83296         0.001256     -0.031516     -0.020159
      1.97382      6.02074     17.31270         0.006327     -0.004226     -0.014087
      2.02729      0.87737     12.46815         0.029429      0.301534     -0.458317
     10.07171      5.79402     10.14663         0.143273     -0.589570      0.171500
     10.15053      1.24691     14.88688        -0.001411      0.000619      0.000728
     11.97051      5.66181     12.67660        -0.246401      0.341850     -0.508233
     11.88178      1.41938     17.58127         0.000656      0.000570      0.001241
      5.30061      8.54195     17.55342        -0.000379     -0.002202     -0.001494
     13.46797      2.32165     18.71127         0.001576     -0.005011     -0.002562
      3.51099      1.33552     17.62193        -0.000127     -0.001569     -0.000547
     13.49327      6.33396     18.13897         0.013291     -0.009300      0.077211
    total drift:                               -0.004360     -0.000314      0.006031

  FREE ENERGIE OF THE ION-ELECTRON SYSTEM (eV)
  free  energy   TOTEN  =      -547.30052430 eV

  energy  without entropy=     -547.30149175  energy(sigma->0) =     -547.30076616

 d Force = 0.6831782E-05[-0.232E-02, 0.233E-02]  d Energy =-0.7023824E-05 0.139E-04
 d Force =-0.2251563E+02[-0.225E+02,-0.226E+02]  d Ewald  =-0.2251596E+02 0.333E-03

 Finite differences progress:
  Degree of freedom:  12/ 12
  Displacement:        2/  2
  Total:              24/ 24

 SECOND DERIVATIVES (NOT SYMMETRIZED)
              65X         65Y         65Z         66X         66Y         66Z         67X         67Y         67Z         68X         68Y         68Z
 65X   -15.353409    1.322328    0.699252   -0.014166   -0.004152    0.042997    0.368458   -0.424208    0.173763   -0.013516    0.010431    0.020239
 65Y     1.310221   -7.165514    0.429891    0.000439   -0.000845    0.011892   -0.447011    0.457961   -0.249243    0.011217   -0.010541   -0.007065
 65Z     0.687896    0.445790   -4.946775   -0.003681   -0.009141    0.000273   -0.179923    0.216549   -0.234729   -0.005109    0.008875   -0.015267
 66X    -0.013776    0.002482    0.000487  -10.572165    1.812260    1.512523    0.848495   -0.098990    0.042501   -0.084500   -0.296421    0.010711
 66Y    -0.000012    0.007612   -0.027357    1.786683  -10.385092    0.710671   -0.565669   -0.070413   -0.035787    0.060305    1.053224    0.277793
 66Z     0.045438    0.011372   -0.006902    1.499750    0.706323  -11.594416   -0.611748    0.040320   -0.159346   -0.024228   -0.538856   -0.110563
 67X     0.367966   -0.450525   -0.178074    0.846454   -0.575398   -0.629033  -16.067816    2.158303    0.952084   -0.005862   -0.017147   -0.001356
 67Y    -0.424330    0.458382    0.214055   -0.101476   -0.071599    0.040611    2.149995   -6.846030    0.322677   -0.020258   -0.017254    0.044794
 67Z     0.173273   -0.249300   -0.235243    0.042900   -0.035332   -0.156438    0.942376    0.318106   -5.100089   -0.010639    0.015144    0.002973
 68X    -0.011944    0.011555   -0.005335   -0.083836    0.053173   -0.024907   -0.006536   -0.018488    0.001580   -4.124731   -1.490109   -0.849990
 68Y     0.014204   -0.005103    0.009350   -0.292830    1.044821   -0.541294   -0.013260   -0.014180   -0.001110   -1.516748  -12.414003    0.423036
 68Z     0.021647   -0.003873   -0.011697    0.015674    0.275646   -0.103061   -0.000451    0.044850    0.005775   -0.840119    0.439383   -5.162579

 Eigenvectors and eigenvalues of the dynamical matrix

   1 f  =   16.177029 THz   101.643268 2PiTHz  539.607575 cm-1    66.902837 meV
             X         Y         Z           dx          dy          dz
      8.576308  8.296846 10.398452            0           0           0
      8.576936  3.760945 15.119636            0           0           0
      8.506061  6.099800 17.330279            0           0           0
      8.516162  0.799950 12.438738            0           0           0
     13.426804  6.129706 15.237169            0           0           0
     13.490936  1.153156 10.447489            0           0           0
     10.033436  3.284281 12.674110            0           0           0
      9.978559  8.604728 17.138003            0           0           0
      7.125241  5.815767 10.157648            0           0           0
      7.095036  1.269098 14.939369            0           0           0
      8.512220  3.280358 10.204496            0           0           0
      8.548588  8.362223 14.851010            0           0           0
     10.222632  8.067230 12.779914            0           0           0
     10.249976  3.876542 17.344919            0           0           0
      5.426642  8.104815 10.206391            0           0           0
      5.399698  3.511574 15.029548            0           0           0
      8.528427  5.754231 12.656400            0           0           0
      8.638111  1.518993 17.206807            0           0           0
      3.848293  7.973169 12.472590            0           0           0
      3.853014  3.537305 17.189761            0           0           0
      3.844386  5.646494 15.010398            0           0           0
      3.900631  0.738911 10.000000            0           0           0
     10.175428  6.051424 14.963596            0           0           0
     10.191124  1.104695 10.137364            0           0           0
      6.829455  7.994241 12.666696            0           0           0
      6.844123  3.617369 17.316132            0           0           0
     11.487295  6.312452 17.428157            0           0           0
     11.667723  1.053724 12.575471            0           0           0
     11.739193  3.338683 10.411988            0           0           0
     11.742584  8.309509 15.264245            0           0           0
      7.185217  3.246439 12.753898            0           0           0
      7.280982  8.565968 17.237584            0           0           0
      6.857811  5.963544 14.941008            0           0           0
      6.877947  0.975598 10.086954            0           0           0
      5.510835  5.550117 12.484188            0           0           0
      5.482744  1.119833 17.206756            0           0           0
      3.512495  3.500193 12.835186            0           0           0
      3.290534  8.778080 17.375191            0           0           0
      3.467984  5.872368 10.408681            0           0           0
      3.377727  1.270391 15.182697            0           0           0
     11.917712  8.216334 10.245339            0           0           0
     11.912728  3.663477 15.094073            0           0           0
      5.241350  3.365425 10.326787            0           0           0
      5.174515  8.338143 15.127135            0           0           0
      5.314217  6.222454 17.434101            0           0           0
      5.289302  0.990642 12.608494            0           0           0
      1.605379  5.844910 12.851215            0           0           0
      1.370954  1.664936 17.675479            0           0           0
     13.720378  5.671342 10.182934            0           0           0
     13.692426  1.076260 15.046188            0           0           0
      1.634565  8.339874 10.364530            0           0           0
      1.539884  3.781610 15.293197            0           0           0
     13.768315  3.161194 12.533077            0           0           0
     13.749914  8.339841 17.374462            0           0           0
      1.994404  3.173136 10.176661            0           0           0
      1.832074  8.052501 15.026552            0           0           0
     13.480506  8.379299 12.868857            0           0           0
     13.284262  4.206770 17.832956            0           0           0
      1.973816  6.020739 17.312700            0           0           0
      2.027287  0.877370 12.468150            0           0           0
     10.071711  5.794019 10.146627            0           0           0
     10.150531  1.246905 14.886879            0           0           0
     11.970507  5.661807 12.676598            0           0           0
     11.881781  1.419385 17.581267            0           0           0
      5.300611  8.541953 17.553420    -0.307781    0.087117    0.030160
     13.467970  2.321654 18.711265    -0.180043    0.109327    0.134956
      3.510987  1.335516 17.621929     0.888569   -0.203147   -0.054968
     13.493268  6.333961 18.153967    -0.003706   -0.018191    0.000729

[...]

  12 f  =    7.187089 THz    45.157812 2PiTHz  239.735474 cm-1    29.723421 meV
             X         Y         Z           dx          dy          dz
      8.576308  8.296846 10.398452            0           0           0
      8.576936  3.760945 15.119636            0           0           0
      8.506061  6.099800 17.330279            0           0           0
      8.516162  0.799950 12.438738            0           0           0
     13.426804  6.129706 15.237169            0           0           0
     13.490936  1.153156 10.447489            0           0           0
     10.033436  3.284281 12.674110            0           0           0
      9.978559  8.604728 17.138003            0           0           0
      7.125241  5.815767 10.157648            0           0           0
      7.095036  1.269098 14.939369            0           0           0
      8.512220  3.280358 10.204496            0           0           0
      8.548588  8.362223 14.851010            0           0           0
     10.222632  8.067230 12.779914            0           0           0
     10.249976  3.876542 17.344919            0           0           0
      5.426642  8.104815 10.206391            0           0           0
      5.399698  3.511574 15.029548            0           0           0
      8.528427  5.754231 12.656400            0           0           0
      8.638111  1.518993 17.206807            0           0           0
      3.848293  7.973169 12.472590            0           0           0
      3.853014  3.537305 17.189761            0           0           0
      3.844386  5.646494 15.010398            0           0           0
      3.900631  0.738911 10.000000            0           0           0
     10.175428  6.051424 14.963596            0           0           0
     10.191124  1.104695 10.137364            0           0           0
      6.829455  7.994241 12.666696            0           0           0
      6.844123  3.617369 17.316132            0           0           0
     11.487295  6.312452 17.428157            0           0           0
     11.667723  1.053724 12.575471            0           0           0
     11.739193  3.338683 10.411988            0           0           0
     11.742584  8.309509 15.264245            0           0           0
      7.185217  3.246439 12.753898            0           0           0
      7.280982  8.565968 17.237584            0           0           0
      6.857811  5.963544 14.941008            0           0           0
      6.877947  0.975598 10.086954            0           0           0
      5.510835  5.550117 12.484188            0           0           0
      5.482744  1.119833 17.206756            0           0           0
      3.512495  3.500193 12.835186            0           0           0
      3.290534  8.778080 17.375191            0           0           0
      3.467984  5.872368 10.408681            0           0           0
      3.377727  1.270391 15.182697            0           0           0
     11.917712  8.216334 10.245339            0           0           0
     11.912728  3.663477 15.094073            0           0           0
      5.241350  3.365425 10.326787            0           0           0
      5.174515  8.338143 15.127135            0           0           0
      5.314217  6.222454 17.434101            0           0           0
      5.289302  0.990642 12.608494            0           0           0
      1.605379  5.844910 12.851215            0           0           0
      1.370954  1.664936 17.675479            0           0           0
     13.720378  5.671342 10.182934            0           0           0
     13.692426  1.076260 15.046188            0           0           0
      1.634565  8.339874 10.364530            0           0           0
      1.539884  3.781610 15.293197            0           0           0
     13.768315  3.161194 12.533077            0           0           0
     13.749914  8.339841 17.374462            0           0           0
      1.994404  3.173136 10.176661            0           0           0
      1.832074  8.052501 15.026552            0           0           0
     13.480506  8.379299 12.868857            0           0           0
     13.284262  4.206770 17.832956            0           0           0
      1.973816  6.020739 17.312700            0           0           0
      2.027287  0.877370 12.468150            0           0           0
     10.071711  5.794019 10.146627            0           0           0
     10.150531  1.246905 14.886879            0           0           0
     11.970507  5.661807 12.676598            0           0           0
     11.881781  1.419385 17.581267            0           0           0
      5.300611  8.541953 17.553420     0.001318   -0.002820   -0.000801
     13.467970  2.321654 18.711265     0.011852    0.038606   -0.009437
      3.510987  1.335516 17.621929     0.002240    0.010387    0.008351
     13.493268  6.333961 18.153967    -0.869558    0.171398    0.461062

 Finite differences POTIM=  1.500000000000000E-002
  LATTYP: Found a simple orthorhombic cell.
 ALAT       =     9.5644817352
 B/A-ratio  =     1.4398428730
 C/A-ratio  =     2.8922184390

  Lattice vectors:

 A1 = (   0.0000000000,  -9.5644817352,   0.0000000000)
 A2 = ( -13.7713508606,   0.0000000000,   0.0000000000)
 A3 = (   0.0000000000,   0.0000000000, -27.6625704340)

Analysis of symmetry for initial positions (statically):
 Subroutine PRICEL returns:
 Original cell was already a primitive cell.

[...]

The static configuration has the point symmetry C_1 .

Analysis of symmetry for dynamics (positions and initial velocities):
 Subroutine PRICEL returns:
 Original cell was already a primitive cell.

[...]

The dynamic configuration has the point symmetry C_1 .

Analysis of constrained symmetry for selective dynamics:
 Subroutine PRICEL returns:
 Original cell was already a primitive cell.

 Routine SETGRP: Setting up the symmetry group for a
 simple orthorhombic supercell.

 Subroutine GETGRP returns: Found  1 space group operations
 (whereof  1 operations were pure point group operations)
 out of a pool of  8 trial point group operations.

The constrained configuration has the point symmetry C_1 .

 Subroutine INISYM returns: Found  1 space group operations
 (whereof  1 operations are pure point group operations),
 and found     1 'primitive' translations

 KPOINTS: k-points

Automatic generation of k-mesh.
Space group operators:
 irot       det(A)        alpha          n_x          n_y          n_z        tau_x        tau_y        tau_z
    1     1.000000     0.000001     1.000000     0.000000     0.000000     0.000000     0.000000     0.000000

 Subroutine IBZKPT returns following result:

 Found      5 irreducible k-points:

 Following reciprocal coordinates:
            Coordinates               Weight
  0.000000  0.000000  0.000000      1.000000
  0.333333  0.000000  0.000000      2.000000
  0.000000  0.333333  0.000000      2.000000
  0.333333  0.333333  0.000000      2.000000
 -0.333333  0.333333  0.000000      2.000000

 Following cartesian coordinates:
            Coordinates               Weight
  0.000000  0.000000  0.000000      1.000000
  0.024205  0.000000  0.000000      2.000000
  0.000000  0.034851  0.000000      2.000000
  0.024205  0.034851  0.000000      2.000000
 -0.024205  0.034851  0.000000      2.000000