 vasp.5.4.1 05Feb16 (build Mar 19 2020 08:54:17) complex

 executed on           IFC91_ompi date 2021.10.23  15:03:49

 INCAR:
 POTCAR:    PAW_PBE Al 04Jan2001
 POTCAR:    PAW_PBE Nb_sv 25May2007
 POTCAR:    PAW_PBE Ta 17Jan2003
 POTCAR:    PAW_PBE Ti 08Apr2002
 POTCAR:   PAW_PBE Zr 08Apr2002
 POTCAR:    PAW_PBE O 08Apr2002

 POTCAR:    PAW_PBE Al 04Jan2001
   VRHFIN =Al: s2p1

   TITEL  = PAW_PBE Al 04Jan2001
   POMASS =   26.981; ZVAL   =    3.000    mass and valenz
   ENMAX  =  240.300; ENMIN  =  180.225 eV

 POTCAR:    PAW_PBE Nb_sv 25May2007
   VRHFIN =Nb: 4p5s4d

   TITEL  = PAW_PBE Nb_sv 25May2007
   POMASS =   92.910; ZVAL   =   13.000    mass and valenz
   ENMAX  =  293.235; ENMIN  =  219.927 eV

 POTCAR:    PAW_PBE Ta 17Jan2003
   VRHFIN =Ta:  6s5d

   TITEL  = PAW_PBE Ta 17Jan2003
   POMASS =  180.948; ZVAL   =    5.000    mass and valenz
   ENMAX  =  223.667; ENMIN  =  167.750 eV

 POTCAR:    PAW_PBE Ti 08Apr2002
   VRHFIN =Ti: d3 s1

   TITEL  = PAW_PBE Ti 08Apr2002
   POMASS =   47.880; ZVAL   =    4.000    mass and valenz
   ENMAX  =  178.330; ENMIN  =  133.747 eV

 POTCAR:   PAW_PBE Zr 08Apr2002
   VRHFIN =Zr: 5s4d5p

   TITEL  = PAW_PBE Zr 08Apr2002
   POMASS =   91.224; ZVAL   =    4.000    mass and valenz
   ENMAX  =  154.632; ENMIN  =  115.974 eV
   QCUT   =   -3.371; QGAM   =    6.742    optimization parameters

   Description
     l     E      TYP  RCUT    TYP  RCUT
     2   .000     23  3.000
     2   .000     23  3.000
     0   .000     23  3.000
     0  2.000     23  3.000
     1  -.400     23  3.000
     3   .000      7   .000

 POTCAR:    PAW_PBE O 08Apr2002
   VRHFIN =O: s2p4

   TITEL  = PAW_PBE O 08Apr2002
   POMASS =   16.000; ZVAL   =    6.000    mass and valenz
   ENMAX  =  400.000; ENMIN  =  300.000 eV

 WARNING: PSMAXN for non-local potential too small
          PSMAXN should be >   12.5490833729506       NTYP=           5
  PAW_PBE Al 04Jan2001                  :
  PAW_PBE Nb_sv 25May2007               :
  PAW_PBE Ta 17Jan2003                  :
  PAW_PBE Ti 08Apr2002                  :
 PAW_PBE Zr 08Apr2002                   :
  PAW_PBE O 08Apr2002                   :

 POSCAR: Al Nb Ta Ti Zr
  positions in direct lattice
  velocities in cartesian coordinates
 exchange correlation table for  LEXCH =        8
   RHO(1)=    0.500       N(1)  =     2000
   RHO(2)=  100.500       N(2)  =     4000

 ion  position               nearest neighbor table
   1  0.623  0.867  0.376-  34 2.83  25 2.88  24 2.88   9 2.88  13 2.90   4 2.91  61 2.93  15 3.16
                            41 3.35  17 3.40
   2  0.620  0.400  0.545-  31 2.75  33 2.77  14 2.81  23 2.84   7 2.89  26 2.90  10 2.91   3 2.97
                            62 2.99  17 3.10  42 3.43
   3  0.635  0.630  0.617-  75 1.89  32 2.65  23 2.67  14 2.72   8 2.72  27 2.76  33 2.89   2 2.97
                            26 2.99  12 3.11
   4  0.618  0.084  0.450-  31 2.80  24 2.86  34 2.87  13 2.88   1 2.91  25 2.92   7 2.92  62 3.01
                            10 3.08  28 3.16  46 3.24
   5  0.976  0.642  0.552-  30 2.80  27 2.87  56 2.91  42 2.93  52 3.01  63 3.02  47 3.11  54 3.13
                            59 3.22  23 3.24  57 3.28  58 3.30
   6  0.980  0.121  0.378-  29 2.80  28 2.80  53 2.91  41 2.96  51 3.05  55 3.05  60 3.08  57 3.37

   7  0.729  0.343  0.458-  28 2.77  29 2.83  31 2.85   2 2.89  17 2.89  11 2.90   4 2.92  63 3.07
                            62 3.08  42 3.09
   8  0.725  0.882  0.625-  71 2.06  27 2.65  30 2.68   3 2.72  18 2.74  12 2.77  32 2.87  64 3.09
                            62 3.30
   9  0.517  0.608  0.367-  35 2.84  15 2.85  17 2.87   1 2.88  11 2.89  61 2.95  43 3.10
  10  0.510  0.141  0.545-  16 2.79  36 2.88  18 2.90   2 2.91  12 2.98  31 3.00  46 3.03  62 3.04
                             4 3.08  44 3.09
  11  0.618  0.343  0.369-  24 2.75  34 2.83  31 2.87   9 2.89   7 2.90  61 2.96  43 3.27
  12  0.615  0.869  0.541-   8 2.77  32 2.81  13 2.82  33 2.82  23 2.84  25 2.84  62 2.97  10 2.98
                             3 3.11  44 3.29
  13  0.742  0.843  0.462-  12 2.82  23 2.85  17 2.87   4 2.88   1 2.90  30 2.91  28 2.94  63 2.98
                            41 3.05  57 3.27
  14  0.741  0.392  0.627-  74 2.07   3 2.72  27 2.81   2 2.81  42 2.87  64 2.93  58 3.03  18 3.06
                            62 3.44
  15  0.394  0.847  0.369-  22 2.68  19 2.76  25 2.83  34 2.84   9 2.85  39 2.98   1 3.16  46 3.43

  16  0.387  0.372  0.546-  21 2.67  10 2.79  26 2.80  20 2.83  33 2.88  37 2.90  40 2.91  31 3.01
                            45 3.47
  17  0.619  0.602  0.458-  23 2.79  33 2.80  25 2.81  31 2.85   9 2.87  13 2.87   7 2.89  61 2.95
                            35 3.03   2 3.10   1 3.40  63 3.44
  18  0.620  0.124  0.634-  72 2.00  74 2.04  71 2.12   8 2.74  10 2.90  62 2.98  32 2.99  36 3.02
                            26 3.06  14 3.06  64 3.27
  19  0.279  0.834  0.451-  15 2.76  35 2.94  46 2.96  39 2.97  44 2.98  25 2.99  60 3.07  51 3.08
                            47 3.12  21 3.12  56 3.27
  20  0.277  0.351  0.632-  69 1.99  70 2.03  67 2.17  16 2.83  36 2.96  48 3.00  45 3.05  26 3.05
                            40 3.10  52 3.15  59 3.33
  21  0.278  0.600  0.530-  16 2.67  35 2.75  45 2.86  47 2.87  37 2.90  56 3.01  52 3.02  33 3.03
                            44 3.05  19 3.12
  22  0.283  0.077  0.361-  15 2.68  46 2.97  43 2.97  34 2.99  51 3.02  55 3.10  60 3.10
  23  0.743  0.637  0.537-   3 2.67  30 2.75  17 2.79  63 2.81  27 2.82  12 2.84   2 2.84  13 2.85
                            42 3.03   5 3.24
  24  0.740  0.115  0.366-  29 2.73  11 2.75  28 2.85   4 2.86   1 2.88  41 3.00
  25  0.496  0.836  0.458-  35 2.78  17 2.81  15 2.83  12 2.84   1 2.88   4 2.92  33 2.97  44 2.98
                            19 2.99  46 2.99
  26  0.497  0.391  0.630-  70 1.97  74 2.04  75 2.27  16 2.80   2 2.90   3 2.99  20 3.05  18 3.06
                            36 3.09  45 3.19
  27  0.833  0.654  0.628-  68 2.04   8 2.65   3 2.76  58 2.77  14 2.81  23 2.82   5 2.87  30 3.00
                            54 3.07  42 3.53
  28  0.847  0.110  0.455-   7 2.77   6 2.80  24 2.85  57 2.90  62 2.91  13 2.94  53 2.98  29 3.15
                            50 3.16   4 3.16  41 3.36
  29  0.852  0.349  0.376-  24 2.73   6 2.80   7 2.83  53 2.94  61 2.98  49 3.07  28 3.15  63 3.25

  30  0.852  0.874  0.551-   8 2.68  23 2.75   5 2.80  13 2.91  57 2.95  62 2.98  27 3.00  50 3.02
                            54 3.03  64 3.54
  31  0.522  0.339  0.461-   2 2.75   4 2.80  17 2.85   7 2.85  35 2.86  11 2.87  46 2.95  10 3.00
                            16 3.01  43 3.11
  32  0.519  0.847  0.630-  72 2.01  65 2.08  75 2.14   3 2.65  12 2.81   8 2.87  36 2.89  45 2.97
                            18 2.99  44 3.07
  33  0.496  0.628  0.538-   2 2.77  35 2.77  17 2.80  12 2.82  16 2.88   3 2.89  44 2.95  25 2.97
                            21 3.03  45 3.13
  34  0.499  0.102  0.365-  11 2.83   1 2.83  15 2.84   4 2.87  43 2.91  46 2.98  22 2.99
  35  0.400  0.580  0.451-  21 2.75  33 2.77  25 2.78   9 2.84  31 2.86  37 2.88  39 2.93  19 2.94
                            17 3.03  43 3.08
  36  0.401  0.098  0.633-  72 1.97  70 2.03  67 2.07  65 2.14  10 2.88  32 2.89  20 2.96  18 3.02
                            38 3.06  26 3.09  40 3.16  44 3.19
  37  0.255  0.366  0.464-  35 2.88  21 2.90  16 2.90  47 3.02  60 3.04  43 3.05  55 3.08  46 3.08
                            52 3.16  40 3.18  39 3.39
  38  0.222  0.910  0.636-  73 1.91  65 2.05  67 2.11  56 2.82  59 3.03  36 3.06  45 3.08  48 3.09
                            54 3.10  44 3.28  40 3.29
  39  0.252  0.614  0.376-  35 2.93  19 2.97  15 2.98  47 3.07  43 3.07  51 3.07  55 3.08  37 3.39
                            49 3.53
  40  0.250  0.140  0.548-  67 2.36  16 2.91  44 3.02  60 3.09  20 3.10  52 3.10  36 3.16  46 3.18
                            37 3.18  48 3.21  56 3.29  38 3.29  50 3.52
  41  0.865  0.859  0.370-   6 2.96  24 3.00  61 3.05  13 3.05  57 3.06  49 3.12   1 3.35  28 3.36
                            51 3.49  63 3.53
  42  0.868  0.378  0.545-  14 2.87   5 2.93  23 3.03  62 3.04  58 3.08   7 3.09  50 3.09  63 3.15
                            53 3.15  52 3.42   2 3.43  64 3.51  27 3.53
  43  0.381  0.352  0.373-  34 2.91  22 2.97  37 3.05  39 3.07  35 3.08   9 3.10  31 3.11  55 3.26
                            11 3.27  46 3.29
  44  0.376  0.882  0.546-  65 2.34  33 2.95  25 2.98  19 2.98  40 3.02  21 3.05  32 3.07  10 3.09
                            45 3.12  36 3.19  46 3.28  38 3.28  12 3.29  56 3.30
  45  0.352  0.650  0.625-  69 2.12  75 2.17  65 2.21  21 2.86  32 2.97  20 3.05  38 3.08  59 3.12
                            44 3.12  33 3.13  26 3.19  16 3.47
  46  0.384  0.104  0.456-  31 2.95  19 2.96  22 2.97  34 2.98  25 2.99  10 3.03  37 3.08  40 3.18
                             4 3.24  60 3.27  44 3.28  43 3.29  15 3.43
  47  0.117  0.611  0.465-  21 2.87  37 3.02  39 3.07   5 3.11  19 3.12  56 3.13  53 3.14  49 3.15
                            57 3.17  52 3.19  63 3.42  51 3.52  55 3.80
  48  0.096  0.177  0.635-  66 2.09  67 2.21  50 2.99  20 3.00  38 3.09  52 3.10  58 3.10  40 3.21
                            54 3.25  64 3.32
  49  0.996  0.593  0.368-  63 3.05  29 3.07  41 3.12  47 3.15  51 3.16  55 3.23  53 3.44  39 3.53
                            61 3.65  57 3.82
  50  0.995  0.112  0.542-  48 2.99  30 3.02  42 3.09  57 3.10  28 3.16  53 3.23  52 3.23  60 3.28
                            56 3.29  64 3.34  54 3.44  40 3.52  62 3.65
  51  0.119  0.872  0.375-  60 3.00  22 3.02   6 3.05  39 3.07  19 3.08  57 3.16  49 3.16  41 3.49
                            47 3.52
  52  0.116  0.400  0.554-   5 3.01  21 3.02  40 3.10  48 3.10  20 3.15  37 3.16  47 3.19  59 3.21
                            50 3.23  53 3.28  58 3.37  42 3.42
  53  1.000  0.331  0.453-   6 2.91  29 2.94  28 2.98  60 3.06  63 3.08  55 3.09  47 3.14  42 3.15
                            50 3.23  52 3.28  49 3.44
  54  0.998  0.868  0.633-  73 2.15  68 2.21  59 2.95  30 3.03  27 3.07  56 3.10  38 3.10   5 3.13
                            64 3.25  48 3.25  50 3.44
  55  0.145  0.332  0.368-   6 3.05  37 3.08  39 3.08  53 3.09  22 3.10  49 3.23  60 3.24  43 3.26
                            47 3.80
  56  0.138  0.836  0.546-  38 2.82   5 2.91  21 3.01  54 3.10  47 3.13  57 3.16  19 3.27  40 3.29
                            50 3.29  44 3.30  59 3.31  60 3.60
  57  0.979  0.876  0.465-  28 2.90  30 2.95  41 3.06  50 3.10  63 3.11  60 3.13  51 3.16  56 3.16
                            47 3.17  13 3.27   5 3.28   6 3.37  49 3.82
  58  0.956  0.430  0.646-  66 2.07  68 2.18  27 2.77  59 3.01  14 3.03  42 3.08  64 3.10  48 3.10
                             5 3.30  52 3.37
  59  0.128  0.623  0.640-  69 2.13  73 2.18  68 2.30  54 2.95  58 3.01  38 3.03  45 3.12  52 3.21
                             5 3.22  56 3.31  20 3.33
  60  0.147  0.092  0.451-  51 3.00  37 3.04  53 3.06  19 3.07   6 3.08  40 3.09  22 3.10  57 3.13
                            55 3.24  46 3.27  50 3.28  56 3.60
  61  0.731  0.606  0.367-   1 2.93  17 2.95   9 2.95  11 2.96  29 2.98  41 3.05  63 3.17  49 3.65

[...]
   -.484E+02 -.350E+02 0.424E+03   0.482E+02 0.347E+02 -.423E+03   0.101E+00 0.993E-01 -.785E+00   -.217E-01 -.294E-02 -.186E-01
   -.292E+02 -.300E+02 -.372E+02   0.290E+02 0.302E+02 0.364E+02   0.206E+00 -.189E+00 0.845E+00   -.124E-01 0.375E-03 -.259E-01
   -.373E+02 0.232E+02 -.277E+03   0.408E+02 -.212E+02 0.275E+03   -.353E+01 -.196E+01 0.143E+01   -.102E-01 -.181E-02 -.748E-02
   0.495E+00 0.700E+01 0.249E+03   -.310E+00 -.679E+01 -.249E+03   -.207E+00 -.267E+00 -.127E+00   -.227E-01 0.211E-03 -.317E-01
   -.582E+02 0.844E+01 -.246E+02   0.579E+02 -.810E+01 0.243E+02   0.323E+00 -.335E+00 0.278E+00   0.119E-01 -.126E-02 -.261E-01
   -.450E+02 0.480E+01 0.368E+03   0.443E+02 -.419E+01 -.366E+03   0.681E+00 -.101E+01 -.226E+01   0.228E-01 -.511E-03 -.197E-01
   -.387E+03 0.682E+01 0.718E+03   0.386E+03 -.607E+01 -.720E+03   0.214E+00 -.385E+00 0.937E+00   -.467E-01 0.262E-01 -.131E+00
   -.350E+03 0.199E+03 -.131E+04   0.348E+03 -.197E+03 0.131E+04   0.175E+01 -.159E+01 0.291E+01   -.209E-01 0.838E-02 -.955E-02
   0.952E+02 -.883E+01 0.182E+04   -.948E+02 0.773E+01 -.182E+04   -.512E+00 0.593E+00 -.432E+01   -.752E-01 -.392E-02 -.601E-01
   0.126E+03 0.119E+02 -.380E+02   -.126E+03 -.117E+02 0.393E+02   0.576E+00 -.196E+00 -.116E+01   -.535E-01 0.909E-02 -.126E+00
   -.587E+02 0.141E+03 0.189E+04   0.596E+02 -.141E+03 -.189E+04   -.527E+00 -.404E+00 -.270E+01   -.101E+00 0.147E-01 -.755E-01
   0.413E+02 0.910E+02 -.530E+02   -.408E+02 -.916E+02 0.537E+02   -.456E+00 0.687E+00 -.554E+00   -.560E-01 -.262E-02 -.123E+00
   -.408E+03 -.213E+02 0.975E+03   0.409E+03 0.200E+02 -.973E+03   -.772E+00 0.164E+01 -.181E+01   -.308E-01 -.213E-01 -.139E+00
   -.378E+03 -.131E+03 -.119E+04   0.379E+03 0.130E+03 0.119E+04   -.981E+00 0.480E+00 0.213E+01   -.268E-01 -.654E-02 -.146E-01
   0.293E+03 -.119E+03 0.173E+04   -.293E+03 0.119E+03 -.173E+04   0.232E+00 -.343E+00 -.425E+01   -.512E-01 0.487E-01 -.718E-01
   0.369E+03 -.132E+03 -.528E+02   -.369E+03 0.132E+03 0.534E+02   0.258E+00 -.545E-01 -.446E+00   -.288E-01 0.139E-02 -.143E+00
   -.200E+02 0.860E+00 0.290E+03   0.195E+02 -.827E+00 -.290E+03   0.532E+00 -.315E-01 -.283E+00   -.267E-01 -.133E-02 -.572E-01
   -.357E+02 -.296E+02 -.506E+03   0.354E+02 0.293E+02 0.505E+03   0.313E+00 0.256E+00 0.124E+01   -.116E-01 0.284E-02 -.457E-02
   0.177E+03 -.964E+01 0.278E+03   -.176E+03 0.950E+01 -.278E+03   -.146E+01 0.693E+00 0.471E+00   0.642E-02 0.418E-02 -.682E-01
   0.186E+03 -.303E+02 -.461E+03   -.185E+03 0.316E+02 0.459E+03   -.122E+01 -.131E+01 0.259E+01   0.339E-02 -.187E-03 -.165E-01
   0.140E+03 -.473E+02 0.254E+02   -.140E+03 0.475E+02 -.256E+02   -.437E+00 -.195E+00 0.252E+00   0.303E-02 -.327E-02 -.484E-01
   0.117E+03 -.556E+02 0.527E+03   -.116E+03 0.557E+02 -.524E+03   -.882E+00 -.262E+00 -.267E+01   0.101E-01 0.138E-02 -.142E-01
   -.123E+03 0.651E+02 -.317E+02   0.123E+03 -.644E+02 0.315E+02   0.829E-01 -.671E+00 0.257E+00   -.811E-02 -.274E-02 -.367E-01
   -.100E+03 0.602E+02 0.578E+03   0.998E+02 -.596E+02 -.575E+03   0.431E+00 -.557E+00 -.287E+01   -.161E-01 0.690E-03 -.260E-01
   0.709E+02 -.195E+02 0.251E+03   -.717E+02 0.189E+02 -.251E+03   0.882E+00 0.849E+00 -.515E+00   -.226E-01 -.334E-03 -.508E-01
   0.175E+02 -.689E+02 -.405E+03   -.179E+02 0.670E+02 0.404E+03   0.428E+00 0.188E+01 0.148E+01   -.839E-02 0.254E-03 -.107E-01
   -.746E+02 0.140E+02 -.375E+03   0.745E+02 -.148E+02 0.373E+03   0.161E+00 0.795E+00 0.260E+01   0.219E-02 -.583E-03 -.339E-02
   -.161E+03 0.764E+01 0.267E+03   0.160E+03 -.751E+01 -.267E+03   0.321E+00 -.318E+00 -.948E-01   0.848E-02 -.559E-03 -.360E-01
   -.150E+03 -.504E+01 0.538E+03   0.149E+03 0.495E+01 -.535E+03   0.664E+00 -.783E-02 -.257E+01   0.902E-02 0.118E-01 -.265E-01
   -.195E+03 -.114E+02 -.536E+02   0.194E+03 0.112E+02 0.539E+02   0.113E+01 0.134E+00 -.294E+00   0.568E-02 -.134E-02 -.306E-01
   0.801E+02 0.706E+01 0.258E+03   -.803E+02 -.676E+01 -.258E+03   0.981E-02 -.581E-01 -.302E+00   -.241E-01 0.839E-03 -.483E-01
   0.311E+02 0.653E+02 -.441E+03   -.297E+02 -.637E+02 0.439E+03   -.144E+01 -.163E+01 0.233E+01   -.995E-02 -.211E-02 -.881E-02
   0.619E+02 0.636E+01 -.184E+02   -.625E+02 -.577E+01 0.169E+02   0.539E+00 -.581E+00 0.160E+01   -.150E-01 -.233E-02 -.423E-01
   0.336E+02 -.102E+01 0.559E+03   -.342E+02 0.993E+00 -.556E+03   0.606E+00 0.899E-02 -.245E+01   -.375E-01 -.227E-04 -.198E-01
   0.127E+03 0.119E+02 0.250E+03   -.126E+03 -.122E+02 -.250E+03   -.954E+00 0.593E+00 -.406E+00   -.121E-01 -.173E-02 -.491E-01
   0.882E+02 0.177E+02 -.401E+03   -.864E+02 -.165E+02 0.400E+03   -.177E+01 -.117E+01 0.155E+01   -.576E-02 0.285E-02 -.124E-01
   0.130E+03 0.104E+02 0.273E+03   -.130E+03 -.102E+02 -.272E+03   0.101E+00 -.433E+00 -.619E+00   0.860E-02 -.176E-02 -.526E-01
   0.825E+02 0.146E+02 -.354E+03   -.837E+02 -.158E+02 0.352E+03   0.126E+01 0.120E+01 0.225E+01   0.612E-02 0.156E-02 -.107E-01
   0.127E+03 0.393E+02 0.490E+03   -.127E+03 -.391E+02 -.487E+03   0.173E+00 -.397E+00 -.267E+01   0.965E-02 -.316E-05 -.190E-01
   0.151E+03 0.350E+02 0.168E+02   -.151E+03 -.340E+02 -.169E+02   -.179E+00 -.939E+00 0.233E+00   0.630E-02 0.263E-02 -.427E-01
   -.983E+02 -.163E+01 0.544E+03   0.985E+02 0.161E+01 -.541E+03   -.448E+00 0.356E-01 -.306E+01   0.116E-01 -.100E-01 -.244E-01
   -.150E+03 0.232E+01 -.279E+02   0.149E+03 -.233E+01 0.283E+02   0.386E+00 0.137E-01 -.396E+00   0.714E-02 0.207E-02 -.313E-01
   0.129E+03 0.294E+02 0.516E+03   -.129E+03 -.297E+02 -.513E+03   -.251E+00 0.373E+00 -.253E+01   -.117E-01 -.108E-01 -.201E-01
   0.143E+03 0.293E+02 0.271E+01   -.142E+03 -.295E+02 -.323E+01   -.712E+00 0.171E+00 0.569E+00   -.592E-02 0.607E-03 -.430E-01
   0.910E+02 -.760E+01 -.345E+03   -.912E+02 0.667E+01 0.343E+03   0.243E+00 0.935E+00 0.212E+01   -.107E-02 -.314E-02 -.147E-01
   0.120E+03 -.629E+01 0.288E+03   -.121E+03 0.596E+01 -.288E+03   0.588E+00 0.413E+00 -.157E+00   -.129E-01 0.997E-03 -.598E-01
   0.434E+02 0.220E+01 0.226E+03   -.433E+02 -.213E+01 -.227E+03   -.384E+00 -.384E-01 -.100E+00   0.193E-01 -.924E-03 -.466E-01
   0.332E+02 0.409E+01 -.340E+03   -.347E+02 -.312E+01 0.338E+03   0.141E+01 -.972E+00 0.215E+01   0.926E-02 0.252E-02 -.809E-02
   -.400E+02 -.290E+00 0.498E+03   0.402E+02 0.620E+00 -.495E+03   -.257E-01 -.270E+00 -.283E+01   0.191E-01 0.135E-02 -.204E-01
   -.569E+02 -.376E+01 -.158E+02   0.569E+02 0.367E+01 0.159E+02   -.135E-01 0.906E-01 -.102E+00   0.173E-01 0.110E-02 -.335E-01
   0.531E+02 -.327E+01 0.480E+03   -.531E+02 0.263E+01 -.477E+03   -.275E-01 0.210E+00 -.315E+01   0.267E-01 0.416E-02 -.220E-01
   0.594E+02 -.481E+01 -.439E+02   -.593E+02 0.411E+01 0.445E+02   -.172E+00 0.695E+00 -.530E+00   0.151E-01 0.119E-02 -.375E-01
   -.681E+02 -.295E+01 0.254E+03   0.682E+02 0.305E+01 -.255E+03   0.126E+00 0.207E+00 0.480E-01   0.246E-01 0.407E-02 -.430E-01
   -.417E+01 -.560E+02 -.325E+03   0.542E+01 0.549E+02 0.323E+03   -.126E+01 0.105E+01 0.190E+01   0.863E-02 0.138E-03 -.512E-02
   0.418E+02 0.140E+01 0.495E+03   -.411E+02 -.123E+01 -.491E+03   -.817E+00 -.323E+00 -.324E+01   0.267E-01 -.554E-02 -.172E-01
   0.496E+02 -.183E+01 -.111E+02   -.492E+02 0.205E+01 0.117E+02   -.466E+00 -.225E+00 -.508E+00   0.126E-01 -.169E-02 -.415E-01
   -.933E+02 0.442E+00 0.228E+03   0.929E+02 -.502E+00 -.229E+03   0.585E+00 0.161E+00 0.416E-01   0.216E-01 -.469E-02 -.444E-01
   -.666E+02 -.454E+01 -.391E+03   0.657E+02 0.340E+01 0.389E+03   0.937E+00 0.114E+01 0.233E+01   0.919E-02 -.185E-02 -.249E-03
   0.345E+02 0.341E+02 -.338E+03   -.335E+02 -.328E+02 0.337E+03   -.105E+01 -.131E+01 0.149E+01   0.824E-02 -.272E-02 -.786E-02
   0.550E+02 -.516E+01 0.262E+03   -.543E+02 0.507E+01 -.262E+03   -.715E+00 0.245E+00 0.123E-01   0.257E-01 0.717E-03 -.526E-01
   -.142E+03 -.432E+02 0.576E+03   0.141E+03 0.425E+02 -.572E+03   0.830E+00 0.629E-01 -.325E+01   -.104E-01 -.358E-03 -.224E-01
   -.149E+03 -.367E+02 -.244E+02   0.148E+03 0.363E+02 0.253E+02   0.177E+00 0.405E+00 -.863E+00   -.104E-01 0.203E-02 -.295E-01
   -.159E+03 0.465E+01 0.256E+03   0.158E+03 -.480E+01 -.257E+03   0.918E+00 0.415E+00 0.144E+00   0.868E-02 0.788E-03 -.431E-01
   -.137E+03 0.456E+01 -.375E+03   0.136E+03 -.437E+01 0.374E+03   0.399E+00 -.192E+00 0.153E+01   0.223E-02 -.966E-05 0.222E-02
   0.149E+03 0.713E+02 -.602E+03   -.149E+03 -.704E+02 0.607E+03   -.222E-01 -.936E+00 -.506E+01   -.156E-02 0.566E-02 -.179E-01
   -.697E+02 0.121E+02 -.807E+03   0.701E+02 -.149E+02 0.822E+03   -.499E+00 0.282E+01 -.150E+02   0.738E-02 -.209E-03 0.163E-01
   0.193E+03 0.196E+02 -.592E+03   -.194E+03 -.226E+02 0.597E+03   0.112E+01 0.292E+01 -.496E+01   0.125E-01 0.753E-02 -.196E-01
   -.415E+02 0.108E+02 -.727E+03   0.415E+02 -.847E+01 0.737E+03   -.350E-01 -.229E+01 -.964E+01   0.146E-01 -.876E-03 0.105E-01
   0.102E+03 -.335E+02 -.819E+03   -.102E+03 0.363E+02 0.838E+03   0.138E+00 -.279E+01 -.183E+02   0.421E-02 -.400E-02 0.262E-02
   0.769E+02 -.390E+02 -.927E+03   -.720E+02 0.375E+02 0.946E+03   -.483E+01 0.145E+01 -.189E+02   -.689E-02 -.233E-02 -.638E-03
   -.153E+03 -.529E+02 -.100E+04   0.154E+03 0.519E+02 0.102E+04   -.131E+01 0.999E+00 -.200E+02   -.421E-02 0.315E-02 0.237E-01
   0.504E+02 0.448E+02 -.972E+03   -.535E+02 -.470E+02 0.992E+03   0.313E+01 0.210E+01 -.200E+02   -.146E-01 0.565E-02 0.502E-02
   0.370E+02 -.218E+02 -.823E+03   -.381E+02 0.229E+02 0.841E+03   0.114E+01 -.117E+01 -.177E+02   0.488E-02 -.292E-02 0.137E-01
   0.398E+02 -.496E+02 -.945E+03   -.415E+02 0.549E+02 0.962E+03   0.173E+01 -.534E+01 -.171E+02   -.136E-01 0.813E-03 0.112E-01
   0.392E+02 0.120E+02 -.739E+03   -.421E+02 -.149E+02 0.748E+03   0.292E+01 0.294E+01 -.905E+01   -.109E-01 -.358E-02 -.686E-02
   0.396E-01 0.132E+01 0.175E+03   -.654E-12 0.107E-13 -.330E-11   0.401E+00 -.139E+01 -.173E+03   -.429E+00 0.677E-01 -.239E+01

 POSITION                                       TOTAL-FORCE (eV/Angst)
      8.57631      8.29685     10.39845        -0.078532     -0.164735      0.029084
      8.53539      3.82515     15.08042        -0.005213      0.000434     -0.008503
      8.73954      6.02494     17.05911         0.002647     -0.004158     -0.002683
      8.51616      0.79995     12.43874        -0.044600     -0.053757      0.062412
     13.43875      6.14036     15.27067         0.001446      0.000065      0.003763
     13.49094      1.15316     10.44749        -0.033262     -0.398149     -0.055798
     10.03344      3.28428     12.67411        -0.064833      0.396076     -0.583975
      9.98616      8.43659     17.27545        -0.001072     -0.007658     -0.000153
      7.12524      5.81577     10.15765        -0.159108     -0.510302      0.966027
      7.02160      1.34586     15.07464         0.002827     -0.004282      0.000499
      8.51222      3.28036     10.20450         0.277194      0.062639      0.834938
      8.46279      8.30866     14.96713         0.000336     -0.000698      0.004270
     10.22263      8.06723     12.77991         0.225828      0.368424     -0.354644
     10.20299      3.74870     17.34693        -0.000458     -0.001527      0.002496
      5.42664      8.10481     10.20639         0.305501      0.056441      0.872128
      5.32294      3.56183     15.09815         0.002488     -0.000585      0.003666
      8.52843      5.75423     12.65640        -0.062832     -0.000092     -0.357490
      8.53980      1.18555     17.54349         0.001195     -0.004838      0.001846
      3.84829      7.97317     12.47259        -0.510679      0.555337     -0.464180
      3.81955      3.35458     17.49103         0.000649     -0.002819     -0.000666
      3.83186      5.73458     14.65125        -0.000811     -0.000109      0.003538
      3.90063      0.73891     10.00000         0.438584     -0.199982      0.373490
     10.23052      6.09472     14.84180         0.002795     -0.001437     -0.001090
     10.19112      1.10470     10.13736        -0.205638     -0.013033      0.301016
      6.82945      7.99424     12.66670         0.038000      0.229763     -0.375379
      6.85004      3.73591     17.43799         0.000106     -0.000354     -0.002758
     11.47548      6.25175     17.36677         0.002543     -0.000195     -0.001204
     11.66772      1.05372     12.57547        -0.278097     -0.189117     -0.460221
     11.73919      3.33868     10.41199        -0.289920     -0.086853      0.592023
     11.73753      8.36107     15.25192        -0.002016      0.001918      0.000594
      7.18522      3.24644     12.75390        -0.245015      0.240252     -0.435315
      7.14375      8.10399     17.43790         0.000805      0.001623      0.005153
      6.83732      6.00771     14.87726         0.000065      0.003962      0.001396
      6.87795      0.97560     10.08695        -0.054322     -0.020200      0.234644
      5.51084      5.55012     12.48419         0.007842      0.272793     -0.641446
      5.52555      0.93932     17.50534         0.006372     -0.001763      0.002891
      3.51249      3.50019     12.83519         0.002651     -0.247240     -0.160546
      3.05229      8.70043     17.58444        -0.000479     -0.000722      0.002581
      3.46798      5.87237     10.40868         0.077396     -0.214578     -0.097560
      3.44028      1.33988     15.17154         0.001463      0.000693      0.000594
     11.91771      8.21633     10.24534        -0.197483      0.003419      0.721853
     11.95489      3.61738     15.07127         0.002553     -0.000471      0.002042
      5.24135      3.36543     10.32679         0.129918      0.084580      0.124769
      5.17418      8.43228     15.09991         0.000123     -0.001367      0.001690
      4.84940      6.22050     17.28226         0.001713      0.000858     -0.001136
      5.28930      0.99064     12.60849         0.213100      0.083306     -0.303061
      1.60538      5.84491     12.85122        -0.241104      0.027029     -0.625443
      1.32437      1.69540     17.55762         0.001230      0.000374     -0.002061
     13.72038      5.67134     10.18293         0.178476      0.062184      0.592550
     13.70494      1.06868     14.98705        -0.000822     -0.001576      0.003757
      1.63456      8.33987     10.36453         0.001153     -0.421234      0.114444
      1.59298      3.82472     15.31861         0.001575      0.000299      0.001480
     13.76831      3.16119     12.53308         0.221908      0.312961     -0.263691
     13.75041      8.30275     17.51445         0.004425      0.000895     -0.003473
      1.99440      3.17314     10.17666        -0.120693     -0.158158      0.625662
      1.90558      7.99878     15.10897         0.001690      0.001581      0.001375
     13.48051      8.37930     12.86886         0.238937      0.096672     -0.316721
     13.16689      4.10902     17.85845         0.000423     -0.000498      0.001655
      1.76852      5.96267     17.70979         0.000676      0.000671     -0.001553
      2.02729      0.87737     12.46815         0.006272      0.154170     -0.409495
     10.07171      5.79402     10.14663         0.156440     -0.561254      0.168024
     10.05804      1.24938     14.98608        -0.000805      0.001826      0.000664
     11.97051      5.66181     12.67660         0.005671      0.266449     -0.728111
     11.80130      1.32761     17.72215         0.005880      0.000479     -0.001143
      5.08148      8.40917     17.43543         0.000294     -0.004384     -0.000426
     13.45501      2.25020     18.71853         0.002991     -0.000610     -0.004083
      3.47639      1.20687     17.52778         0.000716     -0.000919      0.004417
     13.32248      6.25465     18.23729         0.007287      0.002780     -0.001152
      3.53956      5.05912     18.47129         0.003065      0.002691      0.002653
      5.49907      2.73153     18.45452        -0.002249     -0.000927     -0.005374
     10.18677      0.40972     18.63118         0.001306     -0.004720      0.004491
      7.07060      0.23534     18.51032         0.006229      0.001446     -0.003769
      1.72825      7.90290     18.70757         0.004154     -0.001811      0.004107
      8.53727      3.05307     18.35284         0.001488     -0.004008      0.000051
      6.96274      5.98523     17.69097         0.001620     -0.003971     -0.000433
    total drift:                                0.011279     -0.004398      0.033001

  FREE ENERGIE OF THE ION-ELECTRON SYSTEM (eV)
  free  energy   TOTEN  =      -617.45534024 eV

  energy  without entropy=     -617.44428792  energy(sigma->0) =     -617.45257716

 d Force = 0.7255205E-06[-0.110E-04, 0.125E-04]  d Energy =-0.1331087E-04 0.140E-04
 d Force =-0.2871859E+00[-0.287E+00,-0.287E+00]  d Ewald  =-0.2871859E+00 0.757E-07

 reached required accuracy - stopping structural energy minimisation