 vasp.5.4.1 05Feb16 (build Mar 19 2020 08:54:17) complex

 executed on           IFC91_ompi date 2021.10.29  23:52:55

 INCAR:
 POTCAR:    PAW_PBE Al 04Jan2001
 POTCAR:    PAW_PBE Nb_sv 25May2007
 POTCAR:    PAW_PBE Ta 17Jan2003
 POTCAR:    PAW_PBE Ti 08Apr2002
 POTCAR:   PAW_PBE Zr 08Apr2002
 POTCAR:    PAW_PBE O 08Apr2002

 POTCAR:    PAW_PBE Al 04Jan2001
   VRHFIN =Al: s2p1

   TITEL  = PAW_PBE Al 04Jan2001
   POMASS =   26.981; ZVAL   =    3.000    mass and valenz
   ENMAX  =  240.300; ENMIN  =  180.225 eV

 POTCAR:    PAW_PBE Nb_sv 25May2007
   VRHFIN =Nb: 4p5s4d

   TITEL  = PAW_PBE Nb_sv 25May2007
   POMASS =   92.910; ZVAL   =   13.000    mass and valenz
   ENMAX  =  293.235; ENMIN  =  219.927 eV

 POTCAR:    PAW_PBE Ta 17Jan2003
   VRHFIN =Ta:  6s5d

   TITEL  = PAW_PBE Ta 17Jan2003
   POMASS =  180.948; ZVAL   =    5.000    mass and valenz
   ENMAX  =  223.667; ENMIN  =  167.750 eV

 POTCAR:    PAW_PBE Ti 08Apr2002
   VRHFIN =Ti: d3 s1

   TITEL  = PAW_PBE Ti 08Apr2002
   POMASS =   47.880; ZVAL   =    4.000    mass and valenz
   ENMAX  =  178.330; ENMIN  =  133.747 eV

 POTCAR:   PAW_PBE Zr 08Apr2002
   VRHFIN =Zr: 5s4d5p

   TITEL  = PAW_PBE Zr 08Apr2002
   POMASS =   91.224; ZVAL   =    4.000    mass and valenz
   ENMAX  =  154.632; ENMIN  =  115.974 eV
   QCUT   =   -3.371; QGAM   =    6.742    optimization parameters

   Description
     l     E      TYP  RCUT    TYP  RCUT
     2   .000     23  3.000
     2   .000     23  3.000
     0   .000     23  3.000
     0  2.000     23  3.000
     1  -.400     23  3.000
     3   .000      7   .000

 POTCAR:    PAW_PBE O 08Apr2002
   VRHFIN =O: s2p4

   TITEL  = PAW_PBE O 08Apr2002
   POMASS =   16.000; ZVAL   =    6.000    mass and valenz
   ENMAX  =  400.000; ENMIN  =  300.000 eV

 WARNING: PSMAXN for non-local potential too small
          PSMAXN should be >   12.5490833729506       NTYP=           5
  PAW_PBE Al 04Jan2001                  :
  PAW_PBE Nb_sv 25May2007               :
  PAW_PBE Ta 17Jan2003                  :
  PAW_PBE Ti 08Apr2002                  :
 PAW_PBE Zr 08Apr2002                   :
  PAW_PBE O 08Apr2002                   :

 POSCAR: Al Nb Ta Ti Zr
  positions in direct lattice
  velocities in cartesian coordinates
 exchange correlation table for  LEXCH =        8
   RHO(1)=    0.500       N(1)  =     2000
   RHO(2)=  100.500       N(2)  =     4000

 ion  position               nearest neighbor table
   1  0.623  0.867  0.376-  34 2.83  25 2.88  24 2.88   9 2.88  13 2.90   4 2.91  61 2.93  15 3.16
                            41 3.35  17 3.40
   2  0.624  0.391  0.546-  26 2.74  23 2.77  31 2.77  14 2.78  33 2.78   7 2.85  10 2.88  62 2.96
                            18 3.06  17 3.16   3 3.33  42 3.34
   3  0.617  0.639  0.630-  32 2.72  14 2.82   8 2.93  26 2.94  23 2.94  33 2.95  27 3.03  45 3.25
                             2 3.33
   4  0.618  0.084  0.450-  31 2.80  24 2.86  34 2.87  13 2.88   1 2.91  25 2.92   7 2.92  10 2.93
                            62 2.98  12 3.11  28 3.16  46 3.24
   5  0.979  0.639  0.551-  30 2.77  42 2.90  56 2.93  27 2.93  63 3.01  52 3.02  47 3.06  54 3.09
                            59 3.21  58 3.22  57 3.28
   6  0.980  0.121  0.378-  29 2.80  28 2.80  53 2.91  41 2.96  51 3.05  55 3.05  60 3.08  57 3.37

   7  0.729  0.343  0.458-  28 2.77  29 2.83  31 2.85   2 2.85  17 2.89  11 2.90   4 2.92  62 3.01
                            63 3.07  42 3.08
   8  0.726  0.900  0.618-  30 2.57  32 2.68  12 2.71  27 2.78  18 2.83   3 2.93  64 3.07  62 3.14

   9  0.517  0.608  0.367-  35 2.84  15 2.85  17 2.87   1 2.88  11 2.89  61 2.95  43 3.10
  10  0.514  0.136  0.540-  36 2.76  18 2.77  16 2.83   2 2.88  12 2.90   4 2.93  31 2.93  46 2.96
                            62 3.08  44 3.15
  11  0.618  0.343  0.369-  24 2.75  34 2.83  31 2.87   9 2.89   7 2.90  61 2.96  43 3.27
  12  0.621  0.875  0.536-  13 2.66  32 2.70   8 2.71  25 2.79  23 2.83  10 2.90  62 2.93  33 2.96
                             4 3.11  44 3.35
  13  0.742  0.843  0.462-  12 2.66  17 2.87   4 2.88   1 2.90  30 2.91  28 2.94  63 2.98  23 3.00
                            41 3.05  57 3.27  62 3.46
  14  0.745  0.409  0.626-  27 2.72   2 2.78  42 2.81   3 2.82  18 2.87  64 2.97  58 3.08
  15  0.394  0.847  0.369-  22 2.68  19 2.76  25 2.83  34 2.84   9 2.85  39 2.98   1 3.16  46 3.43

  16  0.389  0.370  0.546-  21 2.65  26 2.69  20 2.76  10 2.83  33 2.84  37 2.93  40 2.96  31 3.00

  17  0.619  0.602  0.458-  25 2.81  31 2.85  23 2.85  33 2.85   9 2.87  13 2.87   7 2.89  61 2.95
                            35 3.03   2 3.16   1 3.40  63 3.44
  18  0.629  0.161  0.622-  26 2.70  10 2.77  62 2.79   8 2.83  14 2.87  32 2.89   2 3.06  36 3.15
                            64 3.23
  19  0.279  0.834  0.451-  15 2.76  35 2.94  46 2.96  39 2.97  25 2.99  44 3.00  60 3.07  51 3.08
                            47 3.12  56 3.22  21 3.26
  20  0.276  0.357  0.629-  69 1.99  67 2.16  16 2.76  36 2.90  52 2.95  48 3.04  40 3.10  26 3.15
                            45 3.17  59 3.20
  21  0.282  0.599  0.536-  16 2.65  35 2.86  44 2.94  33 3.00  52 3.01  37 3.02  47 3.03  45 3.04
                            56 3.11  19 3.26  59 3.31
  22  0.283  0.077  0.361-  15 2.68  46 2.97  43 2.97  34 2.99  51 3.02  55 3.10  60 3.10
  23  0.736  0.631  0.542-  30 2.76   2 2.77  27 2.81  12 2.83  17 2.85   3 2.94  42 2.97  63 2.98
                            13 3.00
  24  0.740  0.115  0.366-  29 2.73  11 2.75  28 2.85   4 2.86   1 2.88  41 3.00
  25  0.496  0.836  0.458-  35 2.78  12 2.79  17 2.81  15 2.83   1 2.88   4 2.92  44 2.95  19 2.99
                            46 2.99  33 3.10
  26  0.504  0.379  0.625-  16 2.69  18 2.70   2 2.74  36 2.89   3 2.94  45 3.11  20 3.15
  27  0.837  0.660  0.630-  68 2.15  14 2.72   8 2.78  58 2.79  23 2.81  30 2.93   5 2.93  54 3.01
                             3 3.03
  28  0.847  0.110  0.455-  62 2.76   7 2.77   6 2.80  24 2.85  57 2.90  13 2.94  53 2.98  29 3.15
                             4 3.16  50 3.18  41 3.36
  29  0.852  0.349  0.376-  24 2.73   6 2.80   7 2.83  53 2.94  61 2.98  49 3.07  28 3.15  63 3.25

  30  0.853  0.865  0.551-   8 2.57  23 2.76   5 2.77  54 2.87  13 2.91  27 2.93  57 2.95  62 3.01
                            50 3.10
  31  0.522  0.339  0.461-   2 2.77   4 2.80  17 2.85   7 2.85  35 2.86  11 2.87  10 2.93  46 2.95
                            16 3.00  43 3.11
  32  0.531  0.893  0.623-  65 2.00   8 2.68  12 2.70   3 2.72  36 2.77  18 2.89  44 2.98  45 3.11

  33  0.499  0.621  0.541-   2 2.78  16 2.84  17 2.85  35 2.87  44 2.93   3 2.95  12 2.96  21 3.00
                            45 3.02  25 3.10
  34  0.499  0.102  0.365-  11 2.83   1 2.83  15 2.84   4 2.87  43 2.91  46 2.98  22 2.99
  35  0.400  0.580  0.451-  25 2.78   9 2.84  31 2.86  21 2.86  33 2.87  37 2.88  39 2.93  19 2.94
                            17 3.03  43 3.08
  36  0.402  0.115  0.623-  67 2.04  65 2.19  10 2.76  32 2.77  26 2.89  20 2.90  38 2.93  40 2.95
                            18 3.15  44 3.16
  37  0.255  0.366  0.464-  35 2.88  16 2.93  47 3.02  21 3.02  60 3.04  43 3.05  55 3.08  46 3.08
                            52 3.19  40 3.21  39 3.39
  38  0.241  0.915  0.626-  65 2.04  67 2.12  56 2.82  36 2.93  44 2.94  40 3.02  59 3.04  48 3.11
                            45 3.19  54 3.39
  39  0.252  0.614  0.376-  35 2.93  19 2.97  15 2.98  47 3.07  43 3.07  51 3.07  55 3.08  37 3.39
                            49 3.53
  40  0.249  0.135  0.548-  67 2.46  36 2.95  16 2.96  38 3.02  60 3.07  44 3.08  52 3.09  20 3.10
                            46 3.18  56 3.19  37 3.21  48 3.24  50 3.51
  41  0.865  0.859  0.370-   6 2.96  24 3.00  61 3.05  13 3.05  57 3.06  49 3.12   1 3.35  28 3.36
                            51 3.49  63 3.53
  42  0.866  0.384  0.545-  14 2.81   5 2.90  23 2.97  62 3.01   7 3.08  58 3.10  63 3.11  50 3.13
                            53 3.17   2 3.34  64 3.37  52 3.51
  43  0.381  0.352  0.373-  34 2.91  22 2.97  37 3.05  39 3.07  35 3.08   9 3.10  31 3.11  55 3.26
                            11 3.27  46 3.29
  44  0.379  0.872  0.546-  65 2.42  33 2.93  21 2.94  38 2.94  25 2.95  32 2.98  19 3.00  40 3.08
                            10 3.15  36 3.16  45 3.19  12 3.35  46 3.35  56 3.36
  45  0.382  0.651  0.633-  69 2.13  65 2.28  33 3.02  21 3.04  32 3.11  26 3.11  20 3.17  44 3.19
                            38 3.19   3 3.25  59 3.30
  46  0.384  0.104  0.456-  31 2.95  10 2.96  19 2.96  22 2.97  34 2.98  25 2.99  37 3.08  40 3.18
                             4 3.24  60 3.27  43 3.29  44 3.35  15 3.43
  47  0.117  0.611  0.465-  37 3.02  21 3.03   5 3.06  39 3.07  19 3.12  56 3.12  53 3.14  49 3.15
                            57 3.17  52 3.27  63 3.42  51 3.52  55 3.80
  48  0.099  0.167  0.638-  66 2.08  67 2.19  50 3.04  20 3.04  38 3.11  54 3.15  52 3.16  58 3.18
                            40 3.24  64 3.28
  49  0.996  0.593  0.368-  63 3.05  29 3.07  41 3.12  47 3.15  51 3.16  55 3.23  53 3.44  39 3.53
                            61 3.65  57 3.82
  50  0.995  0.115  0.543-  48 3.04  30 3.10  42 3.13  57 3.15  64 3.16  28 3.18  56 3.22  52 3.23
                            53 3.23  54 3.25  60 3.31  40 3.51  62 3.55
  51  0.119  0.872  0.375-  60 3.00  22 3.02   6 3.05  39 3.07  19 3.08  57 3.16  49 3.16  41 3.49
                            47 3.52
  52  0.120  0.398  0.557-  20 2.95  21 3.01   5 3.02  59 3.09  40 3.09  48 3.16  37 3.19  58 3.23
                            50 3.23  47 3.27  53 3.38  42 3.51
  53  1.000  0.331  0.453-   6 2.91  29 2.94  28 2.98  60 3.06  63 3.08  55 3.09  47 3.14  42 3.17
                            50 3.23  52 3.38  49 3.44
  54  0.996  0.875  0.627-  68 2.20  30 2.87  27 3.01  56 3.03   5 3.09  59 3.09  48 3.15  64 3.22
                            50 3.25  38 3.39
  55  0.145  0.332  0.368-   6 3.05  37 3.08  39 3.08  53 3.09  22 3.10  49 3.23  60 3.24  43 3.26
                            47 3.80
  56  0.135  0.845  0.543-  38 2.82   5 2.93  54 3.03  57 3.05  21 3.11  47 3.12  40 3.19  19 3.22
                            50 3.22  59 3.24  44 3.36  60 3.47
  57  0.979  0.876  0.465-  28 2.90  30 2.95  56 3.05  41 3.06  63 3.11  60 3.13  50 3.15  51 3.16
                            47 3.17  13 3.27   5 3.28   6 3.37  49 3.82
  58  0.965  0.438  0.644-  66 2.09  68 2.19  27 2.79  59 3.08  14 3.08  42 3.10  64 3.11  48 3.18
                             5 3.22  52 3.23
  59  0.142  0.631  0.633-  69 2.13  68 2.30  38 3.04  58 3.08  52 3.09  54 3.09  20 3.20   5 3.21
                            56 3.24  45 3.30  21 3.31
  60  0.147  0.092  0.451-  51 3.00  37 3.04  53 3.06  19 3.07  40 3.07   6 3.08  22 3.10  57 3.13
                            55 3.24  46 3.27  50 3.31  56 3.47
  61  0.731  0.606  0.367-   1 2.93  17 2.95   9 2.95  11 2.96  29 2.98  41 3.05  63 3.17  49 3.65

  62  0.738  0.131  0.538-  28 2.76  18 2.79  12 2.93   2 2.96   4 2.98   7 3.01  42 3.01  30 3.01
                            10 3.08   8 3.14  64 3.19  13 3.46  50 3.55
  63  0.869  0.592  0.458-  13 2.98  23 2.98   5 3.01  49 3.05   7 3.07  53 3.08  42 3.11  57 3.11
                            61 3.17  29 3.25  47 3.42  17 3.44  41 3.53
[...]
     11.86657      1.42608     17.57435        -0.000185     -0.002318      0.002051
      5.33654      8.50833     17.52631         0.004265     -0.004046     -0.001523
     13.47881      2.29715     18.68514         0.002011      0.000391      0.000908
      3.53998      1.28068     17.62537        -0.000825     -0.009479     -0.000172
     13.54390      6.32992     18.14838         0.000056      0.003771      0.004652
      3.66998      5.12293     18.38056        -0.001764      0.037825      0.152574
    total drift:                                0.001129     -0.001124      0.002021

  FREE ENERGIE OF THE ION-ELECTRON SYSTEM (eV)
  free  energy   TOTEN  =      -557.85569311 eV

  energy  without entropy=     -557.86234056  energy(sigma->0) =     -557.85735497

 d Force = 0.2299146E-03[-0.458E-02, 0.504E-02]  d Energy = 0.2607474E-03-0.308E-04
 d Force =-0.2499553E+02[-0.250E+02,-0.250E+02]  d Ewald  =-0.2499597E+02 0.443E-03

 Finite differences progress:
  Degree of freedom:  15/ 15
  Displacement:        2/  2
  Total:              30/ 30

 SECOND DERIVATIVES (NOT SYMMETRIZED)
              65X         65Y         65Z         66X         66Y         66Z         67X         67Y         67Z         68X         68Y         68Z         69X         69Y         69Z
 65X   -14.850875    1.000630    0.815679    0.016627    0.010752    0.026736    0.297075   -0.418849    0.079165   -0.017019    0.015114    0.029093    0.109124   -0.021909   -0.141517
 65Y     1.009549   -7.826599    0.354103   -0.017277   -0.008572    0.001112   -0.431476    0.468998   -0.205409    0.007622   -0.002040   -0.007891    0.143870    0.205528   -0.025006
 65Z     0.816304    0.347264   -5.020365    0.011376   -0.012517    0.001732   -0.135557    0.202016   -0.186980   -0.006280    0.023193   -0.013192   -0.097682    0.096010   -0.026487
 66X     0.018590   -0.023892   -0.000733  -10.697195    1.840956    1.259932    0.711550   -0.082745    0.040914   -0.129931   -0.246894    0.034306   -0.122475    0.054062    0.074102
 66Y     0.015105   -0.005023   -0.025076    1.841444  -10.318321    0.586330   -0.528718   -0.083734   -0.027768    0.073968    0.976177    0.231955   -0.023144   -0.122021   -0.008564
 66Z     0.025050    0.000936    0.002829    1.272878    0.593035  -11.282049   -0.563048    0.026329   -0.136622   -0.059301   -0.465980   -0.098988   -0.048277   -0.076104   -0.013021
 67X     0.294769   -0.440553   -0.137243    0.704648   -0.539720   -0.549179  -15.305729    1.397616    0.784193   -0.008228   -0.023462   -0.042633   -0.217309    0.042518    0.083291
 67Y    -0.415190    0.478674    0.201286   -0.089429   -0.080721    0.024940    1.387674  -11.245766    0.782898   -0.061460    0.008381    0.045034   -0.178955    0.715033    0.614309
 67Z     0.077897   -0.210273   -0.186126    0.034737    0.005815   -0.141763    0.771760    0.736750   -4.860419    0.001439   -0.007054   -0.001269    0.097071    0.048696   -0.143812
 68X    -0.027205    0.014442   -0.003804   -0.137551    0.071881   -0.052314   -0.013844   -0.068129    0.057415   -5.658972   -1.049291   -0.081836    0.218314   -0.235316    0.192701
 68Y     0.018861    0.001493    0.018693   -0.249066    0.966555   -0.468889   -0.017469    0.004842   -0.021901   -1.061063  -11.281022    0.067793   -0.052649   -0.084050   -0.002829
 68Z     0.026067   -0.007866   -0.011049    0.038334    0.232286   -0.101913   -0.034196    0.034379   -0.021261   -0.090565    0.092692   -5.304354   -0.102192   -0.015828   -0.132866
 69X     0.106508    0.145849   -0.098242   -0.123790   -0.021008   -0.038947   -0.219551   -0.184847    0.099484    0.239972   -0.072484   -0.098649   -9.218635    0.382229    0.246989
 69Y    -0.022828    0.210515    0.094155    0.053026   -0.121500   -0.073503    0.041090    0.716799    0.046565   -0.243321   -0.082073   -0.012246    0.376099  -12.683665   -2.741160
 69Z    -0.141630   -0.026610   -0.025818    0.072245   -0.011909   -0.011859    0.081362    0.615632   -0.140343    0.187311   -0.010974   -0.138062    0.223182   -2.716064  -10.682499

 Eigenvectors and eigenvalues of the dynamical matrix

   1 f  =   15.773000 THz    99.104683 2PiTHz  526.130636 cm-1    65.231909 meV
             X         Y         Z           dx          dy          dz
      8.576308  8.296846 10.398452            0           0           0
      8.592167  3.743805 15.092166            0           0           0
      8.501642  6.107377 17.439985            0           0           0
      8.516162  0.799950 12.438738            0           0           0
     13.477907  6.116396 15.238872            0           0           0
     13.490936  1.153156 10.447489            0           0           0
     10.033436  3.284281 12.674110            0           0           0
      9.992925  8.609635 17.107557            0           0           0
      7.125241  5.815767 10.157648            0           0           0
      7.079903  1.300171 14.944810            0           0           0
      8.512220  3.280358 10.204496            0           0           0
      8.548315  8.371178 14.829140            0           0           0
     10.222632  8.067230 12.779914            0           0           0
     10.262048  3.911794 17.309962            0           0           0
      5.426642  8.104815 10.206391            0           0           0
      5.353072  3.539559 15.114265            0           0           0
      8.528427  5.754231 12.656400            0           0           0
      8.655737  1.537698 17.208600            0           0           0
      3.848293  7.973169 12.472590            0           0           0
      3.797058  3.413586 17.392263            0           0           0
      3.889352  5.732024 14.838208            0           0           0
      3.900631  0.738911 10.000000            0           0           0
     10.137387  6.038477 14.993868            0           0           0
     10.191124  1.104695 10.137364            0           0           0
      6.829455  7.994241 12.666696            0           0           0
      6.941085  3.624479 17.280768            0           0           0
     11.525076  6.315136 17.420612            0           0           0
     11.667723  1.053724 12.575471            0           0           0
     11.739193  3.338683 10.411988            0           0           0
     11.742782  8.274868 15.250377            0           0           0
      7.185217  3.246439 12.753898            0           0           0
      7.316369  8.541194 17.221886            0           0           0
      6.877823  5.935232 14.977508            0           0           0
      6.877947  0.975598 10.086954            0           0           0
      5.510835  5.550117 12.484188            0           0           0
      5.537208  1.100589 17.226424            0           0           0
      3.512495  3.500193 12.835186            0           0           0
      3.316706  8.754231 17.327917            0           0           0
      3.467984  5.872368 10.408681            0           0           0
      3.431804  1.291063 15.166888            0           0           0
     11.917712  8.216334 10.245339            0           0           0
     11.930276  3.675943 15.064929            0           0           0
      5.241350  3.365425 10.326787            0           0           0
      5.213159  8.337953 15.115700            0           0           0
      5.258204  6.230050 17.504320            0           0           0
      5.289302  0.990642 12.608494            0           0           0
      1.605379  5.844910 12.851215            0           0           0
      1.369058  1.595454 17.652463            0           0           0
     13.720378  5.671342 10.182934            0           0           0
     13.701399  1.097763 15.023624            0           0           0
      1.634565  8.339874 10.364530            0           0           0
      1.651062  3.806647 15.407806            0           0           0
     13.768315  3.161194 12.533077            0           0           0
     13.716051  8.370294 17.333072            0           0           0
      1.994404  3.173136 10.176661            0           0           0
      1.861943  8.082008 15.008511            0           0           0
     13.480506  8.379299 12.868857            0           0           0
     13.293472  4.185325 17.804473            0           0           0
      1.962207  6.037832 17.517116            0           0           0
      2.027287  0.877370 12.468150            0           0           0
     10.071711  5.794019 10.146627            0           0           0
     10.161821  1.248261 14.883302            0           0           0
     11.970507  5.661807 12.676598            0           0           0
     11.866568  1.426083 17.574351            0           0           0
      5.336544  8.508328 17.526309     0.338711   -0.095093   -0.036247
     13.478812  2.297152 18.685138     0.180638   -0.119949   -0.128158
      3.539981  1.280679 17.625369    -0.846001    0.288314    0.031298
     13.543903  6.329915 18.148377     0.004740    0.014846   -0.005176
      3.669976  5.122932 18.395557    -0.014320   -0.089368   -0.056503

[...]

  15 f  =    8.342355 THz    52.416565 2PiTHz  278.271017 cm-1    34.501221 meV
             X         Y         Z           dx          dy          dz
      8.576308  8.296846 10.398452            0           0           0
      8.592167  3.743805 15.092166            0           0           0
      8.501642  6.107377 17.439985            0           0           0
      8.516162  0.799950 12.438738            0           0           0
     13.477907  6.116396 15.238872            0           0           0
     13.490936  1.153156 10.447489            0           0           0
     10.033436  3.284281 12.674110            0           0           0
      9.992925  8.609635 17.107557            0           0           0
      7.125241  5.815767 10.157648            0           0           0
      7.079903  1.300171 14.944810            0           0           0
      8.512220  3.280358 10.204496            0           0           0
      8.548315  8.371178 14.829140            0           0           0
     10.222632  8.067230 12.779914            0           0           0
     10.262048  3.911794 17.309962            0           0           0
      5.426642  8.104815 10.206391            0           0           0
      5.353072  3.539559 15.114265            0           0           0
      8.528427  5.754231 12.656400            0           0           0
      8.655737  1.537698 17.208600            0           0           0
      3.848293  7.973169 12.472590            0           0           0
      3.797058  3.413586 17.392263            0           0           0
      3.889352  5.732024 14.838208            0           0           0
      3.900631  0.738911 10.000000            0           0           0
     10.137387  6.038477 14.993868            0           0           0
     10.191124  1.104695 10.137364            0           0           0
      6.829455  7.994241 12.666696            0           0           0
      6.941085  3.624479 17.280768            0           0           0
     11.525076  6.315136 17.420612            0           0           0
     11.667723  1.053724 12.575471            0           0           0
     11.739193  3.338683 10.411988            0           0           0
     11.742782  8.274868 15.250377            0           0           0
      7.185217  3.246439 12.753898            0           0           0
      7.316369  8.541194 17.221886            0           0           0
      6.877823  5.935232 14.977508            0           0           0
      6.877947  0.975598 10.086954            0           0           0
      5.510835  5.550117 12.484188            0           0           0
      5.537208  1.100589 17.226424            0           0           0
      3.512495  3.500193 12.835186            0           0           0
      3.316706  8.754231 17.327917            0           0           0
      3.467984  5.872368 10.408681            0           0           0
      3.431804  1.291063 15.166888            0           0           0
     11.917712  8.216334 10.245339            0           0           0
     11.930276  3.675943 15.064929            0           0           0
      5.241350  3.365425 10.326787            0           0           0
      5.213159  8.337953 15.115700            0           0           0
      5.258204  6.230050 17.504320            0           0           0
      5.289302  0.990642 12.608494            0           0           0
      1.605379  5.844910 12.851215            0           0           0
      1.369058  1.595454 17.652463            0           0           0
     13.720378  5.671342 10.182934            0           0           0
     13.701399  1.097763 15.023624            0           0           0
      1.634565  8.339874 10.364530            0           0           0
      1.651062  3.806647 15.407806            0           0           0
     13.768315  3.161194 12.533077            0           0           0
     13.716051  8.370294 17.333072            0           0           0
      1.994404  3.173136 10.176661            0           0           0
      1.861943  8.082008 15.008511            0           0           0
     13.480506  8.379299 12.868857            0           0           0
     13.293472  4.185325 17.804473            0           0           0
      1.962207  6.037832 17.517116            0           0           0
      2.027287  0.877370 12.468150            0           0           0
     10.071711  5.794019 10.146627            0           0           0
     10.161821  1.248261 14.883302            0           0           0
     11.970507  5.661807 12.676598            0           0           0
     11.866568  1.426083 17.574351            0           0           0
      5.336544  8.508328 17.526309     0.045557    0.117520    0.496221
     13.478812  2.297152 18.685138    -0.004167    0.012092    0.024542
      3.539981  1.280679 17.625369    -0.085033   -0.092977   -0.848421
     13.543903  6.329915 18.148377    -0.028202    0.008651    0.010340
      3.669976  5.122932 18.395557    -0.018176   -0.007854    0.007102

 Finite differences POTIM=  1.500000000000000E-002
  LATTYP: Found a simple orthorhombic cell.
 ALAT       =     9.5644817352
 B/A-ratio  =     1.4398428730
 C/A-ratio  =     2.8922184390

  Lattice vectors:

 A1 = (   0.0000000000,  -9.5644817352,   0.0000000000)
 A2 = ( -13.7713508606,   0.0000000000,   0.0000000000)
 A3 = (   0.0000000000,   0.0000000000, -27.6625704340)

Analysis of symmetry for initial positions (statically):
 Subroutine PRICEL returns:
 Original cell was already a primitive cell.

[...]

The static configuration has the point symmetry C_1 .

Analysis of symmetry for dynamics (positions and initial velocities):
 Subroutine PRICEL returns:
 Original cell was already a primitive cell.

[...]

The dynamic configuration has the point symmetry C_1 .

Analysis of constrained symmetry for selective dynamics:
 Subroutine PRICEL returns:
 Original cell was already a primitive cell.

 Routine SETGRP: Setting up the symmetry group for a
 simple orthorhombic supercell.

 Subroutine GETGRP returns: Found  1 space group operations
 (whereof  1 operations were pure point group operations)
 out of a pool of  8 trial point group operations.

The constrained configuration has the point symmetry C_1 .

 Subroutine INISYM returns: Found  1 space group operations
 (whereof  1 operations are pure point group operations),
 and found     1 'primitive' translations

 KPOINTS: k-points

Automatic generation of k-mesh.
Space group operators:
 irot       det(A)        alpha          n_x          n_y          n_z        tau_x        tau_y        tau_z
    1     1.000000     0.000000     1.000000     0.000000     0.000000     0.000000     0.000000     0.000000

 Subroutine IBZKPT returns following result:

 Found      5 irreducible k-points:

 Following reciprocal coordinates:
            Coordinates               Weight
  0.000000  0.000000  0.000000      1.000000
  0.333333  0.000000  0.000000      2.000000
  0.000000  0.333333  0.000000      2.000000
  0.333333  0.333333  0.000000      2.000000
 -0.333333  0.333333  0.000000      2.000000

 Following cartesian coordinates:
            Coordinates               Weight
  0.000000  0.000000  0.000000      1.000000
  0.024205  0.000000  0.000000      2.000000
  0.000000  0.034851  0.000000      2.000000
  0.024205  0.034851  0.000000      2.000000
 -0.024205  0.034851  0.000000      2.000000