 vasp.5.4.1 05Feb16 (build Mar 19 2020 08:54:17) complex

 executed on           IFC91_ompi date 2021.10.23  19:44:21

 INCAR:
 POTCAR:    PAW_PBE Al 04Jan2001
 POTCAR:    PAW_PBE Nb_sv 25May2007
 POTCAR:    PAW_PBE Ta 17Jan2003
 POTCAR:    PAW_PBE Ti 08Apr2002
 POTCAR:   PAW_PBE Zr 08Apr2002
 POTCAR:    PAW_PBE O 08Apr2002

 POTCAR:    PAW_PBE Al 04Jan2001
   VRHFIN =Al: s2p1

   TITEL  = PAW_PBE Al 04Jan2001
   POMASS =   26.981; ZVAL   =    3.000    mass and valenz
   ENMAX  =  240.300; ENMIN  =  180.225 eV

 POTCAR:    PAW_PBE Nb_sv 25May2007
   VRHFIN =Nb: 4p5s4d

   TITEL  = PAW_PBE Nb_sv 25May2007
   POMASS =   92.910; ZVAL   =   13.000    mass and valenz
   ENMAX  =  293.235; ENMIN  =  219.927 eV

 POTCAR:    PAW_PBE Ta 17Jan2003
   VRHFIN =Ta:  6s5d

   TITEL  = PAW_PBE Ta 17Jan2003
   POMASS =  180.948; ZVAL   =    5.000    mass and valenz
   ENMAX  =  223.667; ENMIN  =  167.750 eV

 POTCAR:    PAW_PBE Ti 08Apr2002
   VRHFIN =Ti: d3 s1

   TITEL  = PAW_PBE Ti 08Apr2002
   POMASS =   47.880; ZVAL   =    4.000    mass and valenz
   ENMAX  =  178.330; ENMIN  =  133.747 eV

 POTCAR:   PAW_PBE Zr 08Apr2002
   VRHFIN =Zr: 5s4d5p

   TITEL  = PAW_PBE Zr 08Apr2002
   POMASS =   91.224; ZVAL   =    4.000    mass and valenz
   ENMAX  =  154.632; ENMIN  =  115.974 eV
   QCUT   =   -3.371; QGAM   =    6.742    optimization parameters

   Description
     l     E      TYP  RCUT    TYP  RCUT
     2   .000     23  3.000
     2   .000     23  3.000
     0   .000     23  3.000
     0  2.000     23  3.000
     1  -.400     23  3.000
     3   .000      7   .000

 POTCAR:    PAW_PBE O 08Apr2002
   VRHFIN =O: s2p4

   TITEL  = PAW_PBE O 08Apr2002
   POMASS =   16.000; ZVAL   =    6.000    mass and valenz
   ENMAX  =  400.000; ENMIN  =  300.000 eV

 WARNING: PSMAXN for non-local potential too small
          PSMAXN should be >   12.5490833729506       NTYP=           5
  PAW_PBE Al 04Jan2001                  :
  PAW_PBE Nb_sv 25May2007               :
  PAW_PBE Ta 17Jan2003                  :
  PAW_PBE Ti 08Apr2002                  :
 PAW_PBE Zr 08Apr2002                   :
  PAW_PBE O 08Apr2002                   :

 POSCAR: Al Nb Ta Ti Zr
  positions in direct lattice
  velocities in cartesian coordinates
 exchange correlation table for  LEXCH =        8
   RHO(1)=    0.500       N(1)  =     2000
   RHO(2)=  100.500       N(2)  =     4000

 ion  position               nearest neighbor table
   1  0.623  0.867  0.376-  34 2.83  25 2.88  24 2.88   9 2.88  13 2.90   4 2.91  61 2.93  15 3.16
                            41 3.35  17 3.40
   2  0.620  0.386  0.547-  14 2.77  31 2.78  23 2.79  33 2.81  26 2.81  10 2.84   7 2.91  62 2.98
                            18 3.13  16 3.17  17 3.22   3 3.25  42 3.41
   3  0.615  0.627  0.630-  32 2.72  14 2.79   8 2.85  26 2.87  23 2.93  33 2.95  27 3.12  45 3.19
                             2 3.25
   4  0.618  0.084  0.450-  31 2.80  24 2.86  34 2.87  13 2.88   1 2.91  25 2.92   7 2.92  10 2.94
                            62 2.99  12 3.12  28 3.16  46 3.24
   5  0.982  0.638  0.550-  30 2.76  42 2.88  27 2.90  56 2.93  63 3.01  52 3.01  47 3.02  54 3.06
                            58 3.20  59 3.22  57 3.28
   6  0.980  0.121  0.378-  29 2.80  28 2.80  53 2.91  41 2.96  51 3.05  55 3.05  60 3.08  57 3.37

   7  0.729  0.343  0.458-  28 2.77  29 2.83  31 2.85  17 2.89  11 2.90   2 2.91   4 2.92  62 3.03
                            63 3.07  42 3.09
   8  0.726  0.878  0.625-  71 2.05  32 2.67  27 2.69  30 2.70   3 2.85  12 2.85  18 2.87  64 3.24
                            62 3.39
   9  0.517  0.608  0.367-  35 2.84  15 2.85  17 2.87   1 2.88  11 2.89  61 2.95  43 3.10
  10  0.514  0.133  0.541-  18 2.82   2 2.84  36 2.84  16 2.84  12 2.93   4 2.94  31 2.97  46 2.97
                            62 3.11  44 3.13
  11  0.618  0.343  0.369-  24 2.75  34 2.83  31 2.87   9 2.89   7 2.90  61 2.96  43 3.27
  12  0.624  0.871  0.535-  32 2.59  13 2.61  25 2.79  23 2.80   8 2.85  62 2.93  10 2.93  33 2.93
                             4 3.12  44 3.39
  13  0.742  0.843  0.462-  12 2.61  17 2.87   4 2.88  30 2.90   1 2.90  28 2.94  63 2.98  23 3.04
                            41 3.05  57 3.27  62 3.43
  14  0.748  0.407  0.624-  27 2.67  42 2.77   2 2.77   3 2.79  18 2.95  64 2.99  23 3.09  58 3.14

  15  0.394  0.847  0.369-  22 2.68  19 2.76  25 2.83  34 2.84   9 2.85  39 2.98   1 3.16  46 3.43

  16  0.391  0.371  0.546-  21 2.64  26 2.81  20 2.81  10 2.84  33 2.84  40 2.92  37 2.95  31 2.99
                             2 3.17
  17  0.619  0.602  0.458-  25 2.81  33 2.83  31 2.85  23 2.85   9 2.87  13 2.87   7 2.89  61 2.95
                            35 3.03   2 3.22   1 3.40  63 3.44
  18  0.633  0.146  0.624-  71 2.09  62 2.79  26 2.81  10 2.82   8 2.87  32 2.87  14 2.95   2 3.13
                            36 3.15  64 3.22
  19  0.279  0.834  0.451-  15 2.76  35 2.94  46 2.96  39 2.97  44 2.97  25 2.99  60 3.07  51 3.08
                            47 3.12  56 3.20  21 3.29
  20  0.281  0.353  0.632-  69 1.99  70 2.05  67 2.21  16 2.81  36 2.92  48 3.06  52 3.06  26 3.09
                            40 3.09  45 3.18  59 3.23
  21  0.281  0.596  0.537-  16 2.64  35 2.88  44 2.96  52 2.98  37 3.01  47 3.03  45 3.03  33 3.03
                            56 3.14  59 3.24  19 3.29
  22  0.283  0.077  0.361-  15 2.68  46 2.97  43 2.97  34 2.99  51 3.02  55 3.10  60 3.10
  23  0.735  0.627  0.542-  30 2.77   2 2.79  12 2.80  27 2.80  17 2.85   3 2.93  42 2.95  63 2.99
                            13 3.04  14 3.09
  24  0.740  0.115  0.366-  29 2.73  11 2.75  28 2.85   4 2.86   1 2.88  41 3.00
  25  0.496  0.836  0.458-  35 2.78  12 2.79  17 2.81  15 2.83   1 2.88   4 2.92  44 2.94  19 2.99
                            46 2.99  33 3.06
  26  0.505  0.373  0.631-  70 1.94  18 2.81  16 2.81   2 2.81   3 2.87  36 2.89  20 3.09  45 3.13

  27  0.841  0.651  0.629-  68 2.18  14 2.67   8 2.69  58 2.76  23 2.80   5 2.90  30 2.93  54 3.00
                             3 3.12  42 3.47
  28  0.847  0.110  0.455-  62 2.74   7 2.77   6 2.80  24 2.85  57 2.90  13 2.94  53 2.98  29 3.15
                             4 3.16  50 3.18  41 3.36
  29  0.852  0.349  0.376-  24 2.73   6 2.80   7 2.83  53 2.94  61 2.98  49 3.07  28 3.15  63 3.25

  30  0.853  0.859  0.551-   8 2.70   5 2.76  23 2.77  54 2.84  13 2.90  27 2.93  57 2.94  62 3.03
                            50 3.13
  31  0.522  0.339  0.461-   2 2.78   4 2.80  17 2.85   7 2.85  35 2.86  11 2.87  46 2.95  10 2.97
                            16 2.99  43 3.11
  32  0.533  0.884  0.617-  65 2.02  12 2.59   8 2.67   3 2.72  36 2.77  18 2.87  44 2.92  45 3.05

  33  0.500  0.622  0.540-   2 2.81  17 2.83  16 2.84  35 2.85  44 2.91  12 2.93   3 2.95  45 2.99
                            21 3.03  25 3.06
  34  0.499  0.102  0.365-  11 2.83   1 2.83  15 2.84   4 2.87  43 2.91  46 2.98  22 2.99
  35  0.400  0.580  0.451-  25 2.78   9 2.84  33 2.85  31 2.86  37 2.88  21 2.88  39 2.93  19 2.94
                            17 3.03  43 3.08
  36  0.406  0.106  0.628-  70 2.02  67 2.08  65 2.13  32 2.77  10 2.84  26 2.89  20 2.92  38 2.93
                            40 3.04  18 3.15  44 3.23
  37  0.255  0.366  0.464-  35 2.88  16 2.95  21 3.01  47 3.02  60 3.04  43 3.05  55 3.08  46 3.08
                            52 3.17  40 3.21  39 3.39
  38  0.242  0.910  0.625-  65 2.05  67 2.08  56 2.80  44 2.91  36 2.93  59 2.99  40 3.02  48 3.13
                            45 3.17  54 3.41
  39  0.252  0.614  0.376-  35 2.93  19 2.97  15 2.98  47 3.07  43 3.07  51 3.07  55 3.08  37 3.39
                            49 3.53
  40  0.253  0.138  0.549-  67 2.40  16 2.92  38 3.02  36 3.04  52 3.07  44 3.08  20 3.09  60 3.13
                            46 3.17  37 3.21  56 3.22  48 3.23  50 3.58
  41  0.865  0.859  0.370-   6 2.96  24 3.00  61 3.05  13 3.05  57 3.06  49 3.12   1 3.35  28 3.36
                            51 3.49  63 3.53
  42  0.868  0.385  0.545-  14 2.77   5 2.88  23 2.95  62 3.04   7 3.09  63 3.10  58 3.11  50 3.11
                            53 3.16   2 3.41  27 3.47  52 3.49  64 3.50
  43  0.381  0.352  0.373-  34 2.91  22 2.97  37 3.05  39 3.07  35 3.08   9 3.10  31 3.11  55 3.26
                            11 3.27  46 3.29
  44  0.378  0.871  0.545-  65 2.42  38 2.91  33 2.91  32 2.92  25 2.94  21 2.96  19 2.97  40 3.08
                            10 3.13  45 3.18  36 3.23  46 3.33  56 3.35  12 3.39
  45  0.384  0.650  0.632-  69 2.13  65 2.26  33 2.99  21 3.03  32 3.05  26 3.13  38 3.17  20 3.18
                            44 3.18   3 3.19  59 3.27
  46  0.384  0.104  0.456-  31 2.95  19 2.96  22 2.97  10 2.97  34 2.98  25 2.99  37 3.08  40 3.17
                             4 3.24  60 3.27  43 3.29  44 3.33  15 3.43
  47  0.117  0.611  0.465-  37 3.02   5 3.02  21 3.03  39 3.07  19 3.12  56 3.12  53 3.14  49 3.15
                            57 3.17  52 3.28  63 3.42  51 3.52  55 3.80
  48  0.102  0.165  0.638-  66 2.09  67 2.17  50 3.03  20 3.06  38 3.13  52 3.15  58 3.16  54 3.17
                            40 3.23  64 3.27
  49  0.996  0.593  0.368-  63 3.05  29 3.07  41 3.12  47 3.15  51 3.16  55 3.23  53 3.44  39 3.53
                            61 3.65  57 3.82
  50  0.994  0.115  0.543-  48 3.03  42 3.11  30 3.13  57 3.15  28 3.18  52 3.21  56 3.22  54 3.24
                            53 3.24  64 3.25  60 3.33  62 3.51  40 3.58
  51  0.119  0.872  0.375-  60 3.00  22 3.02   6 3.05  39 3.07  19 3.08  57 3.16  49 3.16  41 3.49
                            47 3.52
  52  0.120  0.394  0.556-  21 2.98   5 3.01  20 3.06  40 3.07  59 3.11  48 3.15  37 3.17  58 3.17
                            50 3.21  47 3.28  53 3.36  42 3.49
  53  1.000  0.331  0.453-   6 2.91  29 2.94  28 2.98  60 3.06  63 3.08  55 3.09  47 3.14  42 3.16
                            50 3.24  52 3.36  49 3.44
  54  0.996  0.872  0.625-  68 2.19  30 2.84  27 3.00  56 3.02   5 3.06  59 3.11  48 3.17  64 3.23
                            50 3.24  38 3.41
  55  0.145  0.332  0.368-   6 3.05  37 3.08  39 3.08  53 3.09  22 3.10  49 3.23  60 3.24  43 3.26
                            47 3.80
  56  0.136  0.848  0.541-  38 2.80   5 2.93  54 3.02  57 3.03  47 3.12  21 3.14  19 3.20  50 3.22
                            40 3.22  59 3.27  44 3.35  60 3.43
  57  0.979  0.876  0.465-  28 2.90  30 2.94  56 3.03  41 3.06  63 3.11  60 3.13  50 3.15  51 3.16
                            47 3.17  13 3.27   5 3.28   6 3.37  49 3.82
  58  0.972  0.437  0.643-  66 2.09  68 2.18  27 2.76  59 3.06  42 3.11  64 3.14  14 3.14  48 3.16
                            52 3.17   5 3.20
  59  0.147  0.631  0.633-  69 2.13  68 2.28  38 2.99  58 3.06  54 3.11  52 3.11   5 3.22  20 3.23
                            21 3.24  56 3.27  45 3.27
  60  0.147  0.092  0.451-  51 3.00  37 3.04  53 3.06  19 3.07   6 3.08  22 3.10  40 3.13  57 3.13
                            55 3.24  46 3.27  50 3.33  56 3.43
  61  0.731  0.606  0.367-   1 2.93  17 2.95   9 2.95  11 2.96  29 2.98  41 3.05  63 3.17  49 3.65

  62  0.740  0.127  0.538-  28 2.74  18 2.79  12 2.93   2 2.98   4 2.99   7 3.03  30 3.03  42 3.04
                            10 3.11  64 3.33   8 3.39  13 3.43  50 3.51
[...]
  Total     -32.89373   -24.93742   -16.12791    -4.76235     5.26436    -1.30192
  in kB     -14.46416   -10.96558    -7.09183    -2.09412     2.31487    -0.57248

 VOLUME and BASIS-vectors are now :
  energy-cutoff  :      600.00
  volume of cell :     3643.60
      direct lattice vectors                 reciprocal lattice vectors
    13.771350861  0.000000000  0.000000000     0.072614518  0.000000000  0.000000000
     0.000000000  9.564481735  0.000000000     0.000000000  0.104553496  0.000000000
     0.000000000  0.000000000 27.662570434     0.000000000  0.000000000  0.036149931

  length of vectors
    13.771350861  9.564481735 27.662570434     0.072614518  0.104553496  0.036149931

 FORCES acting on ions
    electron-ion (+dipol)            ewald-force                    non-local-force                 convergence-correction
   -.468E+02 -.338E+02 0.406E+03   0.467E+02 0.336E+02 -.405E+03   0.915E-01 0.756E-01 -.783E+00   -.834E-02 -.430E-02 0.295E-02
   -.187E+02 -.372E+02 -.945E+02   0.186E+02 0.370E+02 0.946E+02   0.963E-01 0.199E+00 -.129E+00   -.489E-02 0.133E-02 0.619E-02
   0.343E+02 0.199E+02 -.366E+03   -.340E+02 -.196E+02 0.365E+03   -.256E+00 -.349E+00 0.126E+01   -.356E-02 0.396E-03 0.611E-03
   0.215E+01 0.317E+01 0.228E+03   -.222E+01 -.306E+01 -.228E+03   0.881E-01 -.204E+00 -.709E+00   -.823E-02 -.105E-02 0.937E-02
   -.576E+02 0.597E+01 -.488E+02   0.573E+02 -.558E+01 0.485E+02   0.366E+00 -.384E+00 0.294E+00   0.247E-02 0.110E-03 0.510E-02
   -.458E+02 0.457E+01 0.349E+03   0.452E+02 -.396E+01 -.347E+03   0.641E+00 -.102E+01 -.229E+01   0.108E-01 -.606E-03 0.253E-02
   -.370E+03 -.766E+01 0.596E+03   0.370E+03 0.835E+01 -.598E+03   0.180E+00 -.318E+00 0.964E+00   -.164E-01 0.134E-01 0.438E-01
   -.218E+03 0.200E+03 -.145E+04   0.217E+03 -.199E+03 0.144E+04   0.125E+01 -.114E+01 0.323E+01   -.771E-02 0.198E-02 0.294E-02
   0.100E+03 -.691E+01 0.173E+04   -.998E+02 0.581E+01 -.173E+04   -.510E+00 0.653E+00 -.432E+01   -.279E-01 0.295E-02 0.128E-01
   0.146E+03 -.477E+01 -.211E+03   -.146E+03 0.476E+01 0.213E+03   0.194E+00 0.825E-02 -.143E+01   -.238E-01 0.142E-02 0.251E-01
   -.533E+02 0.137E+03 0.180E+04   0.542E+02 -.137E+03 -.180E+04   -.499E+00 -.416E+00 -.276E+01   -.409E-01 0.229E-01 0.119E-01
   0.697E+02 0.113E+03 -.220E+03   -.688E+02 -.114E+03 0.220E+03   -.816E+00 0.568E+00 -.268E+00   -.185E-01 -.708E-02 0.278E-01
   -.427E+03 0.458E+01 0.883E+03   0.428E+03 -.562E+01 -.882E+03   -.793E+00 0.127E+01 -.135E+01   -.123E-01 -.125E-01 0.413E-01
   -.118E+03 -.466E+02 -.136E+04   0.119E+03 0.463E+02 0.136E+04   -.788E+00 0.261E+00 0.276E+01   -.616E-02 0.128E-01 0.147E-01
   0.295E+03 -.115E+03 0.164E+04   -.295E+03 0.115E+03 -.164E+04   0.275E+00 -.386E+00 -.417E+01   -.189E-01 -.216E-02 0.144E-01
   0.311E+03 -.150E+03 -.239E+03   -.311E+03 0.150E+03 0.240E+03   0.164E+00 0.419E-01 -.675E+00   -.249E-02 -.300E-02 0.215E-01
   -.123E+02 0.576E+01 0.234E+03   0.118E+02 -.566E+01 -.234E+03   0.475E+00 -.382E+00 0.393E-01   -.940E-02 0.121E-02 0.116E-01
   0.220E+02 -.698E+02 -.563E+03   -.228E+02 0.697E+02 0.561E+03   0.751E+00 0.829E-01 0.232E+01   -.639E-02 -.482E-03 0.342E-02
   0.172E+03 -.471E+01 0.227E+03   -.171E+03 0.455E+01 -.228E+03   -.147E+01 0.597E+00 0.412E+00   0.121E-02 0.302E-04 0.685E-02
   0.158E+03 -.323E+02 -.487E+03   -.157E+03 0.337E+02 0.485E+03   -.114E+01 -.140E+01 0.269E+01   0.233E-02 0.238E-03 -.113E-02
   0.126E+03 -.560E+02 -.443E+02   -.126E+03 0.560E+02 0.442E+02   -.249E+00 -.151E-01 0.176E+00   0.479E-03 0.107E-02 0.357E-02
   0.116E+03 -.558E+02 0.502E+03   -.115E+03 0.558E+02 -.499E+03   -.823E+00 -.230E+00 -.265E+01   0.177E-03 -.308E-03 0.481E-02
   -.911E+02 0.593E+02 -.975E+02   0.912E+02 -.591E+02 0.974E+02   -.711E-01 -.255E+00 0.599E-01   -.220E-02 0.118E-02 0.880E-02
   -.998E+02 0.594E+02 0.555E+03   0.991E+02 -.588E+02 -.552E+03   0.445E+00 -.515E+00 -.276E+01   -.503E-02 -.172E-02 0.125E-02
   0.793E+02 -.114E+02 0.208E+03   -.803E+02 0.108E+02 -.208E+03   0.890E+00 0.782E+00 -.427E+00   -.811E-02 -.158E-02 0.743E-02
   -.537E+02 -.798E+02 -.471E+03   0.537E+02 0.792E+02 0.469E+03   0.549E-01 0.649E+00 0.212E+01   -.315E-02 -.141E-03 0.641E-03
   -.666E+02 0.423E+01 -.413E+03   0.660E+02 -.430E+01 0.410E+03   0.579E+00 0.702E-01 0.289E+01   0.387E-03 -.213E-03 0.203E-02
   -.162E+03 0.650E+01 0.235E+03   0.162E+03 -.626E+01 -.236E+03   0.153E+00 -.395E+00 0.388E+00   0.546E-02 -.777E-03 0.146E-01
   -.149E+03 -.567E+01 0.513E+03   0.148E+03 0.559E+01 -.510E+03   0.702E+00 -.358E-01 -.252E+01   0.672E-02 0.586E-02 0.357E-02
   -.188E+03 -.591E+01 -.964E+02   0.187E+03 0.585E+01 0.963E+02   0.104E+01 0.651E-01 0.477E-01   0.564E-03 -.214E-02 0.804E-02
   0.832E+02 -.266E+00 0.214E+03   -.835E+02 0.678E+00 -.215E+03   0.402E-01 -.824E-01 -.109E+00   -.901E-02 0.140E-02 0.824E-02
   0.529E+02 0.542E+02 -.467E+03   -.525E+02 -.540E+02 0.466E+03   -.428E+00 -.182E+00 0.144E+01   -.474E-02 -.130E-02 0.160E-02
   0.530E+02 0.102E+01 -.110E+03   -.536E+02 -.791E+00 0.110E+03   0.619E+00 -.226E+00 0.477E+00   -.599E-02 -.250E-03 0.760E-02
   0.351E+02 -.160E+01 0.534E+03   -.358E+02 0.152E+01 -.531E+03   0.612E+00 0.541E-01 -.244E+01   -.132E-01 -.123E-02 0.378E-02
   0.127E+03 0.116E+02 0.203E+03   -.127E+03 -.119E+02 -.203E+03   -.795E+00 0.581E+00 -.416E+00   -.492E-02 0.760E-03 0.647E-02
   0.136E+02 0.407E+02 -.444E+03   -.120E+02 -.393E+02 0.442E+03   -.160E+01 -.137E+01 0.246E+01   -.568E-03 -.695E-03 -.503E-03
   0.123E+03 0.648E+01 0.230E+03   -.123E+03 -.626E+01 -.230E+03   0.423E-01 -.271E+00 -.639E+00   0.178E-02 0.107E-03 0.532E-02
   0.128E+03 0.647E+02 -.375E+03   -.129E+03 -.658E+02 0.373E+03   0.136E+01 0.105E+01 0.186E+01   0.183E-02 -.117E-02 -.602E-03
   0.125E+03 0.397E+02 0.461E+03   -.125E+03 -.395E+02 -.458E+03   0.137E+00 -.446E+00 -.272E+01   0.269E-02 0.477E-03 0.528E-02
   0.140E+03 0.371E+02 -.310E+02   -.140E+03 -.365E+02 0.308E+02   -.356E+00 -.598E+00 0.115E+00   0.202E-02 -.109E-02 0.400E-02
   -.984E+02 -.107E+01 0.521E+03   0.987E+02 0.105E+01 -.517E+03   -.480E+00 0.535E-01 -.310E+01   0.625E-02 -.446E-02 0.249E-02
   -.144E+03 0.479E+01 -.617E+02   0.143E+03 -.477E+01 0.622E+02   0.398E+00 -.168E-01 -.521E+00   0.243E-02 0.216E-02 0.839E-02
   0.129E+03 0.283E+02 0.487E+03   -.129E+03 -.285E+02 -.485E+03   -.215E+00 0.324E+00 -.249E+01   -.557E-02 0.327E-03 0.484E-02
   0.132E+03 0.379E+02 -.616E+02   -.132E+03 -.376E+02 0.607E+02   -.464E+00 -.262E+00 0.858E+00   -.276E-02 -.106E-02 0.553E-02
   0.645E+01 -.103E+02 -.429E+03   -.733E+01 0.976E+01 0.426E+03   0.876E+00 0.580E+00 0.316E+01   -.134E-02 0.343E-03 -.237E-03
   0.124E+03 -.709E+01 0.248E+03   -.124E+03 0.680E+01 -.249E+03   0.413E+00 0.298E+00 -.134E+00   -.562E-02 -.328E-03 0.605E-02
   0.346E+02 0.347E+01 0.189E+03   -.343E+02 -.338E+01 -.190E+03   -.138E+00 -.179E+00 0.127E+00   0.775E-02 -.344E-04 0.680E-02
   0.269E+02 0.301E+02 -.376E+03   -.282E+02 -.293E+02 0.373E+03   0.128E+01 -.787E+00 0.233E+01   0.430E-02 -.804E-03 0.226E-03
   -.410E+02 -.151E-01 0.474E+03   0.412E+02 0.409E+00 -.470E+03   -.680E-01 -.264E+00 -.276E+01   0.945E-02 0.757E-03 0.332E-02
   -.603E+02 -.236E+01 -.582E+02   0.603E+02 0.189E+01 0.586E+02   0.439E-01 0.472E+00 -.335E+00   0.589E-02 -.528E-03 0.710E-02
   0.512E+02 -.287E+01 0.454E+03   -.512E+02 0.222E+01 -.451E+03   0.449E-01 0.217E+00 -.306E+01   0.883E-02 0.411E-03 0.433E-02
   0.542E+02 -.501E+01 -.835E+02   -.539E+02 0.475E+01 0.842E+02   -.362E+00 0.250E+00 -.773E+00   0.522E-02 0.454E-03 0.405E-02
   -.709E+02 -.319E+01 0.221E+03   0.709E+02 0.338E+01 -.221E+03   0.129E+00 0.198E+00 0.244E+00   0.103E-01 0.111E-02 0.879E-02
   -.619E+02 -.440E+02 -.356E+03   0.626E+02 0.433E+02 0.353E+03   -.658E+00 0.717E+00 0.239E+01   0.342E-02 -.125E-02 0.211E-02
   0.400E+02 0.894E+00 0.469E+03   -.393E+02 -.749E+00 -.465E+03   -.845E+00 -.307E+00 -.330E+01   0.797E-02 -.655E-03 0.437E-02
   0.354E+02 0.284E+00 -.511E+02   -.350E+02 -.191E+00 0.515E+02   -.449E+00 -.919E-01 -.434E+00   0.634E-02 -.137E-03 0.593E-02
   -.944E+02 -.973E-02 0.195E+03   0.941E+02 -.182E+00 -.195E+03   0.556E+00 0.284E+00 0.999E-01   0.834E-02 -.154E-02 0.908E-02
   -.548E+02 -.565E+01 -.395E+03   0.539E+02 0.463E+01 0.393E+03   0.913E+00 0.101E+01 0.215E+01   0.209E-02 0.880E-03 0.120E-02
   0.300E+02 -.336E+02 -.358E+03   -.290E+02 0.337E+02 0.356E+03   -.976E+00 -.918E-01 0.235E+01   0.413E-02 0.920E-03 0.499E-03
   0.510E+02 -.641E+01 0.227E+03   -.503E+02 0.633E+01 -.227E+03   -.739E+00 0.456E+00 -.135E+00   0.784E-02 -.870E-04 0.563E-02
   -.140E+03 -.425E+02 0.550E+03   0.140E+03 0.419E+02 -.547E+03   0.845E+00 0.677E-01 -.327E+01   -.536E-02 0.130E-02 0.239E-02
   -.142E+03 -.404E+02 -.717E+02   0.142E+03 0.403E+02 0.723E+02   0.503E+00 0.165E+00 -.566E+00   -.275E-02 -.823E-03 0.101E-01
   -.155E+03 0.473E+01 0.221E+03   0.154E+03 -.476E+01 -.222E+03   0.672E+00 0.360E+00 0.733E-01   0.313E-02 0.114E-02 0.109E-01
   -.105E+03 0.774E+01 -.401E+03   0.105E+03 -.727E+01 0.400E+03   0.791E-02 -.476E+00 0.162E+01   0.130E-02 -.403E-03 0.235E-02
   0.858E+02 0.800E+02 -.707E+03   -.856E+02 -.806E+02 0.714E+03   -.181E+00 0.620E+00 -.756E+01   -.304E-02 -.202E-02 -.496E-02
   -.555E+02 0.181E+02 -.807E+03   0.557E+02 -.194E+02 0.822E+03   -.197E+00 0.130E+01 -.148E+02   0.118E-02 0.156E-02 -.255E-02
   0.164E+03 0.507E+02 -.655E+03   -.164E+03 -.529E+02 0.662E+03   0.283E+00 0.213E+01 -.742E+01   0.371E-03 -.334E-03 -.420E-02
   -.698E+02 -.287E+02 -.730E+03   0.696E+02 0.310E+02 0.738E+03   0.259E+00 -.227E+01 -.863E+01   0.287E-02 0.627E-02 -.128E-02
   0.755E+02 -.750E+02 -.815E+03   -.764E+02 0.788E+02 0.831E+03   0.833E+00 -.390E+01 -.164E+02   0.487E-02 0.111E-01 0.690E-02
   -.634E+01 -.187E+02 -.933E+03   0.944E+01 0.175E+02 0.952E+03   -.310E+01 0.123E+01 -.190E+02   0.402E-02 0.478E-02 -.959E-02
   -.750E+02 -.928E+02 -.970E+03   0.747E+02 0.926E+02 0.988E+03   0.318E+00 0.213E+00 -.181E+02   -.528E-02 -.529E-03 0.885E-03
   -.165E-01 0.127E+01 0.104E+03   0.327E-12 0.142E-12 0.171E-11   0.165E+00 -.131E+01 -.105E+03   -.147E+00 0.443E-01 0.461E+00

 POSITION                                       TOTAL-FORCE (eV/Angst)
      8.57631      8.29685     10.39845        -0.069046     -0.149167      0.005018
      8.54561      3.69489     15.13485         0.001779      0.000975     -0.001451
      8.47557      5.99685     17.43155         0.002231     -0.002449      0.003123
      8.51616      0.79995     12.43874         0.006532     -0.093807     -0.198633
     13.51915      6.09927     15.22339         0.001643      0.000402      0.002037
     13.49094      1.15316     10.44749        -0.034666     -0.404822     -0.061723
     10.03344      3.28428     12.67411        -0.081878      0.389437     -0.615962
      9.99822      8.39678     17.28383        -0.000410      0.003432     -0.000036
      7.12524      5.81577     10.15765        -0.140104     -0.439025      0.936390
      7.07651      1.26970     14.96437        -0.000841      0.000130     -0.002581
      8.51222      3.28036     10.20450         0.306265      0.009917      0.760772
      8.58828      8.33263     14.80429         0.000766     -0.001174     -0.002030
     10.22263      8.06723     12.77991         0.257510      0.210381     -0.549201
     10.29758      3.89069     17.26694         0.001702     -0.001600      0.000398
      5.42664      8.10481     10.20639         0.277422      0.041681      0.916198
      5.38019      3.54636     15.11481         0.004255     -0.005430     -0.000121
      8.52843      5.75423     12.65640        -0.010554     -0.278896     -0.084078
      8.72068      1.39711     17.24740        -0.000025     -0.002614      0.002179
      3.84829      7.97317     12.47259        -0.494591      0.431767     -0.591886
      3.86711      3.37097     17.47318        -0.006161     -0.000375      0.002943
      3.87026      5.69916     14.85188        -0.002374      0.001353     -0.002083
      3.90063      0.73891     10.00000         0.509117     -0.183128      0.367763
     10.12250      5.99572     15.00679        -0.001349      0.001618      0.000002
     10.19112      1.10470     10.13736        -0.228836      0.032722      0.347954
      6.82945      7.99424     12.66670        -0.110197      0.245999     -0.455533
      6.94866      3.56440     17.44381        -0.002256     -0.003970      0.002739
     11.58690      6.22999     17.38679        -0.001345     -0.003600      0.002051
     11.66772      1.05372     12.57547        -0.187081     -0.151500     -0.652492
     11.73919      3.33868     10.41199        -0.270242     -0.101522      0.589938
     11.75278      8.21718     15.24227        -0.000785     -0.000068     -0.001000
      7.18522      3.24644     12.75390        -0.206028      0.331096     -0.441763
      7.34144      8.45028     17.07369         0.002508     -0.005693      0.000200
      6.88525      5.95265     14.95136        -0.001609     -0.000931      0.003202
      6.87795      0.97560     10.08695        -0.056256     -0.025724      0.167722
      5.51084      5.55012     12.48419        -0.036341      0.342299     -0.213585
      5.59237      1.01702     17.37345         0.002715     -0.001934      0.001525
      3.51249      3.50019     12.83519         0.003521     -0.057198     -0.221781
      3.33615      8.70760     17.28632        -0.000735     -0.002516      0.002047
      3.46798      5.87237     10.40868         0.062866     -0.247194     -0.062741
      3.49068      1.31668     15.19478         0.001021     -0.003168     -0.002298
     11.91771      8.21633     10.24534        -0.182595      0.025794      0.620923
     11.95687      3.68014     15.06369         0.001404      0.002197     -0.001449
      5.24135      3.36543     10.32679         0.156612      0.089234      0.176119
      5.20619      8.32925     15.08952         0.001066     -0.002069     -0.000032
      5.29399      6.21807     17.47246        -0.002145      0.000324      0.000668
      5.28930      0.99064     12.60849         0.124325     -0.001031     -0.387346
      1.60538      5.84491     12.85122         0.118677     -0.091656     -0.518345
      1.39839      1.57743     17.63604         0.002607     -0.002391     -0.000074
     13.72038      5.67134     10.18293         0.161413      0.131247      0.672742
     13.68743      1.09810     15.03416        -0.000947     -0.001699      0.000167
      1.63456      8.33987     10.36453         0.022735     -0.434487      0.158441
      1.65748      3.77155     15.38972        -0.001298     -0.003143     -0.001738
     13.76831      3.16119     12.53308         0.183188      0.387930     -0.279343
     13.71886      8.33899     17.29569        -0.002317     -0.003805      0.002411
      1.99440      3.17314     10.17666        -0.114644     -0.162593      0.656837
      1.86667      8.10672     14.97806         0.000015      0.000742      0.001820
     13.48051      8.37930     12.86886         0.200081      0.090399     -0.304856
     13.38187      4.17537     17.78009        -0.001590     -0.003757     -0.000219
      2.02601      6.03221     17.50056        -0.001898     -0.004622     -0.000572
      2.02729      0.87737     12.46815        -0.001274      0.379071     -0.405023
     10.07171      5.79402     10.14663         0.144523     -0.590723      0.135189
     10.18602      1.21807     14.88056         0.001670      0.000894     -0.001743
     11.97051      5.66181     12.67660        -0.318378      0.338935     -0.470369
     11.90168      1.41006     17.73257         0.001452     -0.003759      0.001284
      5.36280      8.47242     17.49775         0.001173     -0.002866      0.001064
     13.54745      2.31283     18.72078         0.003191     -0.002832      0.000763
      3.53007      1.18795     17.58699        -0.000974     -0.000720     -0.000765
     13.62540      6.31589     18.14072        -0.000982     -0.000526      0.000283
      3.72827      5.12191     18.41114         0.000553     -0.005684     -0.006133
      5.53566      2.71872     18.46543         0.006713      0.000177     -0.002874
     10.18002      0.51011     18.44713        -0.000500     -0.004288     -0.001049
    total drift:                                0.000974      0.001788     -0.020962

  FREE ENERGIE OF THE ION-ELECTRON SYSTEM (eV)
  free  energy   TOTEN  =      -578.19138247 eV

  energy  without entropy=     -578.19406042  energy(sigma->0) =     -578.19205195

 d Force = 0.2158878E-05[ 0.298E-05, 0.133E-05]  d Energy = 0.2480156E-06 0.191E-05
 d Force = 0.3135600E-01[ 0.314E-01, 0.314E-01]  d Ewald  = 0.3135566E-01 0.332E-06

 reached required accuracy - stopping structural energy minimisation