 vasp.5.4.4.18Apr17-6-g9f103f2a35 (build Jan 21 2021 13:12:21) complex

 executed on             LinuxIFC date 2021.11.06  15:04:59

 INCAR:
 POTCAR:    PAW_PBE Al 04Jan2001
 POTCAR:    PAW_PBE Nb_sv 25May2007
 POTCAR:    PAW_PBE Ta 17Jan2003
 POTCAR:    PAW_PBE Ti 08Apr2002
 POTCAR:   PAW_PBE Zr 08Apr2002
 POTCAR:    PAW_PBE O 08Apr2002

 POTCAR:    PAW_PBE Al 04Jan2001
   VRHFIN =Al: s2p1

   TITEL  = PAW_PBE Al 04Jan2001
   POMASS =   26.981; ZVAL   =    3.000    mass and valenz
   ENMAX  =  240.300; ENMIN  =  180.225 eV

 POTCAR:    PAW_PBE Nb_sv 25May2007
   VRHFIN =Nb: 4p5s4d

   TITEL  = PAW_PBE Nb_sv 25May2007
   POMASS =   92.910; ZVAL   =   13.000    mass and valenz
   ENMAX  =  293.235; ENMIN  =  219.927 eV

 POTCAR:    PAW_PBE Ta 17Jan2003
   VRHFIN =Ta:  6s5d

   TITEL  = PAW_PBE Ta 17Jan2003
   POMASS =  180.948; ZVAL   =    5.000    mass and valenz
   ENMAX  =  223.667; ENMIN  =  167.750 eV

 POTCAR:    PAW_PBE Ti 08Apr2002
   VRHFIN =Ti: d3 s1

   TITEL  = PAW_PBE Ti 08Apr2002
   POMASS =   47.880; ZVAL   =    4.000    mass and valenz
   ENMAX  =  178.330; ENMIN  =  133.747 eV

 POTCAR:   PAW_PBE Zr 08Apr2002
   VRHFIN =Zr: 5s4d5p

   TITEL  = PAW_PBE Zr 08Apr2002
   POMASS =   91.224; ZVAL   =    4.000    mass and valenz
   ENMAX  =  154.632; ENMIN  =  115.974 eV
   QCUT   =   -3.371; QGAM   =    6.742    optimization parameters

   Description
     l     E      TYP  RCUT    TYP  RCUT
     2   .000     23  3.000
     2   .000     23  3.000
     0   .000     23  3.000
     0  2.000     23  3.000
     1  -.400     23  3.000
     3   .000      7   .000

 POTCAR:    PAW_PBE O 08Apr2002
   VRHFIN =O: s2p4

   TITEL  = PAW_PBE O 08Apr2002
   POMASS =   16.000; ZVAL   =    6.000    mass and valenz
   ENMAX  =  400.000; ENMIN  =  300.000 eV

 Optimization of the real space projectors (new method)

 maximal supplied QI-value         = 19.84
 optimisation between [QCUT,QGAM] = [ 12.50, 25.00] = [ 43.76,175.03] Ry
 Optimized for a Real-space Cutoff    1.06 Angstroem

   l    n(q)    QCUT    max X(q) W(low)/X(q) W(high)/X(q)  e(spline)
   0      8    12.501   176.870    0.16E-03    0.12E-03    0.66E-07
   0      8    12.501   105.762    0.15E-03    0.12E-03    0.64E-07
   1      7    12.501    55.370    0.36E-03    0.38E-03    0.67E-07
   1      7    12.501    20.208    0.32E-03    0.35E-03    0.64E-07
 Optimization of the real space projectors (new method)

[...]

   l    n(q)    QCUT    max X(q) W(low)/X(q) W(high)/X(q)  e(spline)
   2     11    12.478    49.363    0.45E-03    0.34E-03    0.89E-06
   2     11    12.478    47.669    0.44E-03    0.33E-03    0.87E-06
   0     12    12.478    26.374    0.17E-03    0.37E-04    0.21E-05
   0     12    12.478    11.549    0.13E-03    0.31E-04    0.17E-05
   1     11    12.478     9.492    0.91E-05    0.64E-04    0.34E-06
 Optimization of the real space projectors (new method)

[...]

   l    n(q)    QCUT    max X(q) W(low)/X(q) W(high)/X(q)  e(spline)
   2     12    12.472     5.149    0.23E-04    0.12E-05    0.19E-06
   2     12    12.472    48.417    0.26E-03    0.15E-03    0.35E-05
   0     13    12.472    27.113    0.15E-04    0.46E-05    0.14E-06
   0     13    12.472    33.957    0.20E-04    0.33E-04    0.12E-05
   1     12    12.472    13.771    0.11E-04    0.23E-05    0.34E-06
 WARNING: PSMAXN for non-local potential too small
          PSMAXN should be >   12.5490833729506       NTYP=           5
 Optimization of the real space projectors (new method)

 maximal supplied QI-value         = 24.76
 optimisation between [QCUT,QGAM] = [ 12.38, 25.00] = [ 42.90,175.06] Ry
 Optimized for a Real-space Cutoff    1.13 Angstroem

   l    n(q)    QCUT    max X(q) W(low)/X(q) W(high)/X(q)  e(spline)
   0      8    12.378    20.381    0.16E-03    0.54E-05    0.27E-06
   0      8    12.378    15.268    0.17E-03    0.61E-05    0.29E-06
   1      8    12.378     5.964    0.38E-03    0.23E-03    0.28E-06
   1      8    12.378     5.382    0.33E-03    0.20E-03    0.25E-06
  PAW_PBE Al 04Jan2001                  :
  PAW_PBE Nb_sv 25May2007               :
  PAW_PBE Ta 17Jan2003                  :
  PAW_PBE Ti 08Apr2002                  :
 PAW_PBE Zr 08Apr2002                   :
  PAW_PBE O 08Apr2002                   :

 POSCAR: Al Nb Ta Ti Zr
  positions in direct lattice
  velocities in cartesian coordinates
 exchange correlation table for  LEXCH =        8
   RHO(1)=    0.500       N(1)  =     2000
   RHO(2)=  100.500       N(2)  =     4000

 ion  position               nearest neighbor table
   1  0.623  0.867  0.376-  34 2.83  25 2.88  24 2.88   9 2.88  13 2.90   4 2.91  61 2.93  15 3.16
                            41 3.35  17 3.40
   2  0.618  0.396  0.547-  31 2.78  33 2.82  23 2.84  14 2.92  10 2.93   7 2.94  26 2.97  62 3.01
                             3 3.06  16 3.16  17 3.16  42 3.45
   3  0.589  0.625  0.623-  79 1.83  75 1.84  78 1.90  32 2.64  33 2.72  26 2.82   8 2.83  45 2.93
                            23 2.98   2 3.06  14 3.08
   4  0.618  0.084  0.450-  31 2.80  24 2.86  34 2.87  13 2.88   1 2.91  25 2.92   7 2.92  62 2.97
                            10 3.06  28 3.16  46 3.24
   5  0.981  0.635  0.549-  27 2.78  30 2.81  56 2.94  42 2.96  63 2.97  47 3.00  52 3.05  59 3.17
                            57 3.27  54 3.38  58 3.53
   6  0.980  0.121  0.378-  29 2.80  28 2.80  53 2.91  41 2.96  51 3.05  55 3.05  60 3.08  57 3.37

   7  0.729  0.343  0.458-  28 2.77  29 2.83  31 2.85  17 2.89  11 2.90   4 2.92   2 2.94  62 3.05
                            63 3.07  42 3.13
   8  0.725  0.846  0.632-  78 2.02  71 2.04  77 2.07  79 2.17  27 2.71  32 2.79   3 2.83  30 2.85
                            12 2.91  18 2.92  64 3.18
   9  0.517  0.608  0.367-  35 2.84  15 2.85  17 2.87   1 2.88  11 2.89  61 2.95  43 3.10
  10  0.511  0.132  0.545-  16 2.83  18 2.89  36 2.90   2 2.93  12 2.94  46 3.04  62 3.04   4 3.06
                            31 3.06  44 3.17
  11  0.618  0.343  0.369-  24 2.75  34 2.83  31 2.87   9 2.89   7 2.90  61 2.96  43 3.27
  12  0.621  0.869  0.540-  13 2.75  23 2.80  32 2.80  33 2.85  25 2.88  62 2.91   8 2.91  10 2.94
                            44 3.43
  13  0.742  0.843  0.462-  12 2.75  17 2.87   4 2.88   1 2.90  28 2.94  63 2.98  41 3.05  30 3.07
                            23 3.09  57 3.27  62 3.47
  14  0.740  0.390  0.633-  74 1.99  76 2.01  79 2.23   2 2.92  42 2.98  18 3.02  27 3.03  64 3.07
                             3 3.08  58 3.13
  15  0.394  0.847  0.369-  22 2.68  19 2.76  25 2.83  34 2.84   9 2.85  39 2.98   1 3.16  46 3.43

  16  0.390  0.370  0.547-  21 2.63  20 2.81  10 2.83  26 2.88  40 2.90  33 2.92  37 2.94  31 3.00
                             2 3.16
  17  0.619  0.602  0.458-  33 2.76  25 2.81  31 2.85   9 2.87  13 2.87   7 2.89  61 2.95  23 3.01
                            35 3.03   2 3.16   1 3.40  63 3.44
  18  0.629  0.118  0.631-  72 2.04  71 2.04  74 2.07  32 2.67  10 2.89  62 2.91   8 2.92  26 2.97
                            14 3.02  64 3.16  36 3.16
  19  0.279  0.834  0.451-  15 2.76  35 2.94  46 2.96  44 2.97  39 2.97  25 2.99  60 3.07  51 3.08
                            47 3.12  56 3.28  21 3.33
  20  0.272  0.347  0.629-  69 2.00  70 2.04  67 2.17  16 2.81  36 2.95  48 3.03  52 3.06  40 3.07
                            59 3.09  26 3.12  45 3.19
  21  0.271  0.584  0.534-  80 2.06  16 2.63  37 2.86  47 2.89  35 2.90  52 2.92  44 3.06  45 3.07
                            33 3.14  56 3.17  59 3.20  19 3.33
  22  0.283  0.077  0.361-  15 2.68  46 2.97  43 2.97  34 2.99  51 3.02  55 3.10  60 3.10
  23  0.742  0.634  0.547-  79 2.15  12 2.80  30 2.82   2 2.84  27 2.91   3 2.98  17 3.01  63 3.04
                            42 3.05  13 3.09
  24  0.740  0.115  0.366-  29 2.73  11 2.75  28 2.85   4 2.86   1 2.88  41 3.00
  25  0.496  0.836  0.458-  35 2.78  17 2.81  15 2.83   1 2.88  12 2.88  33 2.91   4 2.92  19 2.99
                            46 2.99  44 3.00
  26  0.498  0.364  0.636-  70 1.90  75 1.92  74 1.97   3 2.82  36 2.87  16 2.88  18 2.97   2 2.97
                            20 3.12  45 3.15
  27  0.866  0.650  0.632-  79 2.02  76 2.02  68 2.04  77 2.12   8 2.71  58 2.73   5 2.78  23 2.91
                            54 2.97  30 3.00  14 3.03
  28  0.847  0.110  0.455-   7 2.77   6 2.80  62 2.85  24 2.85  57 2.90  13 2.94  53 2.98  50 3.04
                            29 3.15   4 3.16  41 3.36
  29  0.852  0.349  0.376-  24 2.73   6 2.80   7 2.83  53 2.94  61 2.98  49 3.07  28 3.15  63 3.25

  30  0.861  0.873  0.555-  77 2.20   5 2.81  23 2.82   8 2.85  50 2.95  57 2.97  27 3.00  62 3.06
                            13 3.07  64 3.24  54 3.29
  31  0.522  0.339  0.461-   2 2.78   4 2.80  17 2.85   7 2.85  35 2.86  11 2.87  46 2.95  16 3.00
                            10 3.06  43 3.11
  32  0.524  0.884  0.629-  78 1.88  72 2.00  65 2.01   3 2.64  18 2.67  36 2.68   8 2.79  12 2.80
                            45 3.05  44 3.08
  33  0.497  0.631  0.536-   3 2.72  35 2.73  17 2.76   2 2.82  44 2.84  12 2.85  25 2.91  16 2.92
                            45 3.08  21 3.14
  34  0.499  0.102  0.365-  11 2.83   1 2.83  15 2.84   4 2.87  43 2.91  46 2.98  22 2.99
  35  0.400  0.580  0.451-  33 2.73  25 2.78   9 2.84  31 2.86  37 2.88  21 2.90  39 2.93  19 2.94
                            17 3.03  43 3.08
  36  0.400  0.099  0.634-  72 1.94  70 2.01  67 2.05  65 2.13  32 2.68  26 2.87  10 2.90  38 2.94
                            20 2.95  40 3.13  18 3.16  44 3.29
  37  0.255  0.366  0.464-  21 2.86  35 2.88  16 2.94  47 3.02  60 3.04  43 3.05  55 3.08  46 3.08
                            52 3.09  40 3.18  39 3.39
  38  0.231  0.911  0.634-  73 1.89  67 2.03  65 2.05  80 2.15  56 2.86  54 2.88  36 2.94  48 2.96
                            59 3.12  44 3.13  40 3.25  45 3.26
  39  0.252  0.614  0.376-  35 2.93  19 2.97  15 2.98  47 3.07  43 3.07  51 3.07  55 3.08  37 3.39
                            49 3.53
  40  0.257  0.134  0.546-  67 2.40  16 2.90  44 3.02  20 3.07  46 3.07  52 3.07  60 3.07  36 3.13
                            37 3.18  48 3.20  56 3.21  38 3.25  50 3.64
  41  0.865  0.859  0.370-   6 2.96  24 3.00  61 3.05  13 3.05  57 3.06  49 3.12   1 3.35  28 3.36
                            51 3.49  63 3.53
  42  0.868  0.372  0.547-   5 2.96  14 2.98  62 3.00  23 3.05  50 3.06   7 3.13  58 3.16  53 3.19
                            63 3.23  52 3.42   2 3.45  64 3.47
  43  0.381  0.352  0.373-  34 2.91  22 2.97  37 3.05  39 3.07  35 3.08   9 3.10  31 3.11  55 3.26
                            11 3.27  46 3.29
  44  0.373  0.866  0.547-  65 2.36  80 2.37  33 2.84  19 2.97  25 3.00  40 3.02  21 3.06  32 3.08
                            38 3.13  45 3.13  10 3.17  56 3.29  36 3.29  46 3.39  12 3.43
  45  0.377  0.644  0.630-  69 2.09  75 2.10  65 2.25  80 2.26   3 2.93  32 3.05  21 3.07  33 3.08
                            44 3.13  26 3.15  20 3.19  59 3.24  38 3.26
  46  0.384  0.104  0.456-  31 2.95  19 2.96  22 2.97  34 2.98  25 2.99  10 3.04  40 3.07  37 3.08
                             4 3.24  60 3.27  43 3.29  44 3.39  15 3.43
  47  0.117  0.611  0.465-  21 2.89   5 3.00  37 3.02  39 3.07  19 3.12  53 3.14  49 3.15  57 3.17
[...]
 65Z    -5.114707    0.018514    0.021385   -0.055064   -0.082932   -0.198146   -0.040245   -0.129603   -0.146403   -0.066768   -0.102137   -0.006764   -0.005382   -0.122821    0.001079    0.456640
 66Z     0.012536  -11.105057   -0.142364   -0.125830   -0.018267   -0.025187   -0.109383   -0.022515    0.037615   -0.045202   -0.027111   -0.314188   -0.020700   -0.035236   -0.002396    0.006478
 67Z     0.033557   -0.167605   -4.737937    0.003512   -0.294381   -0.109354    0.013735   -0.244443   -0.032473   -0.018716   -0.041640    0.012137   -0.001368    0.004503   -0.007449   -0.068638
 68Z    -0.048373   -0.121284    0.008057   -6.908159   -0.135070   -0.021017   -0.016619   -0.031711   -0.516409   -0.013518   -0.032139   -0.547609   -0.043519    0.000354   -0.057585   -0.016985
 69Z    -0.083925   -0.013071   -0.289469   -0.140408  -12.420895   -0.287513   -0.035800   -0.047331   -0.388447   -0.035360   -0.376538   -0.043886   -0.027830   -0.054228   -0.001055    0.346162
 70Z    -0.195654   -0.019186   -0.105530   -0.035661   -0.254341  -13.810490   -0.040251   -0.432018   -0.053865   -0.187597   -0.458091   -0.031465   -0.019209   -0.067251   -0.016773   -0.014245
 71Z    -0.035293   -0.113816    0.018383   -0.027307   -0.036055   -0.082772  -13.073216   -0.397793   -0.052083   -0.340838   -0.087564   -0.109739   -0.163243   -0.329348   -0.180065   -0.027317
 72Z    -0.124571   -0.023037   -0.244577   -0.028676   -0.038043   -0.412671   -0.429561  -15.968241   -0.049357   -0.476906   -0.146475   -0.071971   -0.041223   -0.411241   -0.026713   -0.018697
 73Z    -0.143457    0.028873   -0.027179   -0.514664   -0.390250   -0.038137   -0.052546   -0.047275  -15.129614   -0.024105   -0.061927   -0.070781   -0.111296   -0.038295   -0.013309    0.619318
 74Z    -0.069383   -0.045307   -0.014216   -0.018336   -0.040642   -0.187916   -0.340063   -0.474779   -0.052157  -10.138528   -0.517612   -0.153269    0.001561   -0.126619   -0.133104   -0.006694
 75Z    -0.102962   -0.025946   -0.050030   -0.042568   -0.374723   -0.455461   -0.086304   -0.145406   -0.076024   -0.461167  -11.423063   -0.083746    0.005244   -0.530237   -0.187379    0.021530
 76Z    -0.007592   -0.320646    0.011620   -0.548469   -0.055260   -0.028035   -0.102090   -0.074627   -0.063913   -0.146711   -0.065220  -13.341180   -0.140937   -0.141009    0.468795   -0.021680
 77Z    -0.005654   -0.026598   -0.000679   -0.049500   -0.035383   -0.016754   -0.164806   -0.041684   -0.113175   -0.006563    0.004849   -0.111357   -4.569400   -0.297927   -0.023463   -0.025297
 78Z    -0.129369   -0.024531    0.013041   -0.000885   -0.055145   -0.074451   -0.328150   -0.413144   -0.038942   -0.126356   -0.533081   -0.134546   -0.309997  -16.431138    0.203328   -0.020958
 79Z    -0.002767   -0.001025   -0.007310   -0.058599   -0.003250   -0.021132   -0.174837   -0.035122   -0.011815   -0.135665   -0.182019    0.473657   -0.028975    0.232522   -6.783341    0.014073
 80Z     0.452253    0.000151   -0.071419   -0.021327    0.343436   -0.019277   -0.023697   -0.020473    0.611738   -0.014426    0.025431   -0.021465   -0.022725   -0.023022    0.010358  -12.286558

 Eigenvectors and eigenvalues of the dynamical matrix

   1 f  =   16.068646 THz   100.962282 2PiTHz  535.992327 cm-1    66.454603 meV
             X         Y         Z           dx          dy          dz
      8.576308  8.296846 10.398452            0           0           0
      8.511105  3.789220 15.133387            0           0           0
      8.111673  5.977297 17.232028            0           0           0
      8.516162  0.799950 12.438738            0           0           0
     13.504730  6.076497 15.189655            0           0           0
     13.490936  1.153156 10.447489            0           0           0
     10.033436  3.284281 12.674110            0           0           0
      9.978694  8.091911 17.483915            0           0           0
      7.125241  5.815767 10.157648            0           0           0
      7.040627  1.258572 15.081328            0           0           0
      8.512220  3.280358 10.204496            0           0           0
      8.558593  8.307789 14.950957            0           0           0
     10.222632  8.067230 12.779914            0           0           0
     10.195853  3.728257 17.523139            0           0           0
      5.426642  8.104815 10.206391            0           0           0
      5.364921  3.539788 15.122345            0           0           0
      8.528427  5.754231 12.656400            0           0           0
      8.661631  1.130286 17.467993            0           0           0
      3.848293  7.973169 12.472590            0           0           0
      3.744185  3.315725 17.402584            0           0           0
      3.737651  5.583392 14.784646            0           0           0
      3.900631  0.738911 10.000000            0           0           0
     10.218199  6.062340 15.130294            0           0           0
     10.191124  1.104695 10.137364            0           0           0
      6.829455  7.994241 12.666696            0           0           0
      6.855339  3.479238 17.584581            0           0           0
     11.929598  6.216252 17.474483            0           0           0
     11.667723  1.053724 12.575471            0           0           0
     11.739193  3.338683 10.411988            0           0           0
     11.862648  8.345680 15.356935            0           0           0
      7.185217  3.246439 12.753898            0           0           0
      7.212317  8.450934 17.402028            0           0           0
      6.845571  6.037403 14.821016            0           0           0
      6.877947  0.975598 10.086954            0           0           0
      5.510835  5.550117 12.484188            0           0           0
      5.506566  0.949708 17.525447            0           0           0
      3.512495  3.500193 12.835186            0           0           0
      3.179178  8.714799 17.534009            0           0           0
      3.467984  5.872368 10.408681            0           0           0
      3.537514  1.284006 15.111750            0           0           0
     11.917712  8.216334 10.245339            0           0           0
     11.954984  3.554959 15.128511            0           0           0
      5.241350  3.365425 10.326787            0           0           0
      5.134964  8.285130 15.128192            0           0           0
      5.195917  6.156601 17.423174            0           0           0
      5.289302  0.990642 12.608494            0           0           0
      1.605379  5.844910 12.851215            0           0           0
      1.339709  1.472823 17.426349            0           0           0
     13.720378  5.671342 10.182934            0           0           0
     13.684679  1.045083 14.846860            0           0           0
      1.634565  8.339874 10.364530            0           0           0
      1.597053  3.660541 15.251406            0           0           0
     13.768315  3.161194 12.533077            0           0           0
      0.355509  8.198347 17.743785            0           0           0
      1.994404  3.173136 10.176661            0           0           0
      1.850851  8.112186 15.075910            0           0           0
     13.480506  8.379299 12.868857            0           0           0
     13.292170  3.905246 17.969198            0           0           0
      1.967280  5.839160 17.432734            0           0           0
      2.027287  0.877370 12.468150            0           0           0
[...]
     13.480484  1.961089 18.648256            0           0    0.014230
      3.472476  1.162167 17.512127            0           0    0.013025
      0.011313  6.044625 18.308069            0           0    0.010452
      3.708635  5.053134 18.396452            0           0    0.042533
      5.363755  2.707522 18.483803            0           0    0.124317
     10.141714  0.247497 18.568415            0           0    0.142581
      7.071124  0.503963 18.578056            0           0    0.544361
      2.185934  7.616710 18.711795            0           0    0.065630
      8.574632  2.978920 18.406272            0           0    0.074282
      6.846925  5.235427 18.348554            0           0    0.115977
     11.504978  4.678856 18.712905            0           0    0.060082
     12.033046  8.335988 17.545444            0           0    0.024910
      8.355520  7.398919 18.468232            0           0    0.798442
      9.943946  5.932267 17.260035            0           0   -0.012256
      3.472515  7.020392 16.239126            0           0   -0.006268

[...]

  16 f  =    8.340942 THz    52.407687 2PiTHz  278.223885 cm-1    34.495378 meV
             X         Y         Z           dx          dy          dz
      8.576308  8.296846 10.398452            0           0           0
      8.511105  3.789220 15.133387            0           0           0
      8.111673  5.977297 17.232028            0           0           0
      8.516162  0.799950 12.438738            0           0           0
     13.504730  6.076497 15.189655            0           0           0
     13.490936  1.153156 10.447489            0           0           0
     10.033436  3.284281 12.674110            0           0           0
      9.978694  8.091911 17.483915            0           0           0
      7.125241  5.815767 10.157648            0           0           0
      7.040627  1.258572 15.081328            0           0           0
      8.512220  3.280358 10.204496            0           0           0
      8.558593  8.307789 14.950957            0           0           0
     10.222632  8.067230 12.779914            0           0           0
     10.195853  3.728257 17.523139            0           0           0
      5.426642  8.104815 10.206391            0           0           0
      5.364921  3.539788 15.122345            0           0           0
      8.528427  5.754231 12.656400            0           0           0
      8.661631  1.130286 17.467993            0           0           0
      3.848293  7.973169 12.472590            0           0           0
      3.744185  3.315725 17.402584            0           0           0
      3.737651  5.583392 14.784646            0           0           0
      3.900631  0.738911 10.000000            0           0           0
     10.218199  6.062340 15.130294            0           0           0
     10.191124  1.104695 10.137364            0           0           0
      6.829455  7.994241 12.666696            0           0           0
      6.855339  3.479238 17.584581            0           0           0
     11.929598  6.216252 17.474483            0           0           0
     11.667723  1.053724 12.575471            0           0           0
     11.739193  3.338683 10.411988            0           0           0
     11.862648  8.345680 15.356935            0           0           0
      7.185217  3.246439 12.753898            0           0           0
      7.212317  8.450934 17.402028            0           0           0
      6.845571  6.037403 14.821016            0           0           0
      6.877947  0.975598 10.086954            0           0           0
      5.510835  5.550117 12.484188            0           0           0
      5.506566  0.949708 17.525447            0           0           0
      3.512495  3.500193 12.835186            0           0           0
      3.179178  8.714799 17.534009            0           0           0
      3.467984  5.872368 10.408681            0           0           0
      3.537514  1.284006 15.111750            0           0           0
     11.917712  8.216334 10.245339            0           0           0
     11.954984  3.554959 15.128511            0           0           0
      5.241350  3.365425 10.326787            0           0           0
      5.134964  8.285130 15.128192            0           0           0
      5.195917  6.156601 17.423174            0           0           0
      5.289302  0.990642 12.608494            0           0           0
      1.605379  5.844910 12.851215            0           0           0
      1.339709  1.472823 17.426349            0           0           0
     13.720378  5.671342 10.182934            0           0           0
     13.684679  1.045083 14.846860            0           0           0
      1.634565  8.339874 10.364530            0           0           0
      1.597053  3.660541 15.251406            0           0           0
     13.768315  3.161194 12.533077            0           0           0
      0.355509  8.198347 17.743785            0           0           0
      1.994404  3.173136 10.176661            0           0           0
      1.850851  8.112186 15.075910            0           0           0
     13.480506  8.379299 12.868857            0           0           0
     13.292170  3.905246 17.969198            0           0           0
      1.967280  5.839160 17.432734            0           0           0
      2.027287  0.877370 12.468150            0           0           0
[...]
     13.480484  1.961089 18.648256            0           0    0.002426
      3.472476  1.162167 17.512127            0           0   -0.003672
      0.011313  6.044625 18.308069            0           0    0.013515
      3.708635  5.053134 18.396452            0           0    0.003367
      5.363755  2.707522 18.483803            0           0    0.001502
     10.141714  0.247497 18.568415            0           0    0.017612
      7.071124  0.503963 18.578056            0           0    0.001985
      2.185934  7.616710 18.711795            0           0    0.009781
      8.574632  2.978920 18.406272            0           0   -0.001989
      6.846925  5.235427 18.348554            0           0   -0.003832
     11.504978  4.678856 18.712905            0           0    0.013583
     12.033046  8.335988 17.545444            0           0   -0.999134
      8.355520  7.398919 18.468232            0           0    0.025249
      9.943946  5.932267 17.260035            0           0    0.015710
      3.472515  7.020392 16.239126            0           0    0.003964

 Finite differences POTIM=  1.500000000000000E-002
  LATTYP: Found a simple orthorhombic cell.
 ALAT       =     9.5644817352
 B/A-ratio  =     1.4398428730
 C/A-ratio  =     2.8922184390

  Lattice vectors:

 A1 = (   0.0000000000,  -9.5644817352,   0.0000000000)
 A2 = ( -13.7713508606,   0.0000000000,   0.0000000000)
 A3 = (   0.0000000000,   0.0000000000, -27.6625704340)

Analysis of symmetry for initial positions (statically):
 Subroutine PRICEL returns:
 Original cell was already a primitive cell.

[...]

The static configuration has the point symmetry C_1 .

Analysis of symmetry for dynamics (positions and initial velocities):
 Subroutine PRICEL returns:
 Original cell was already a primitive cell.

[...]

The dynamic configuration has the point symmetry C_1 .

Analysis of constrained symmetry for selective dynamics:
 Subroutine PRICEL returns:
 Original cell was already a primitive cell.

 Routine SETGRP: Setting up the symmetry group for a
 simple orthorhombic supercell.

 Subroutine GETGRP returns: Found  1 space group operations
 (whereof  1 operations were pure point group operations)
 out of a pool of  8 trial point group operations.

The constrained configuration has the point symmetry C_1 .

 Subroutine INISYM returns: Found  1 space group operations
 (whereof  1 operations are pure point group operations),
 and found     1 'primitive' translations

 KPOINTS: k-points

Automatic generation of k-mesh.
Space group operators:
 irot       det(A)        alpha          n_x          n_y          n_z        tau_x        tau_y        tau_z
    1     1.000000     0.000001     1.000000     0.000000     0.000000     0.000000     0.000000     0.000000

 Subroutine IBZKPT returns following result:

 Found      5 irreducible k-points:

 Following reciprocal coordinates:
            Coordinates               Weight
  0.000000  0.000000  0.000000      1.000000
  0.333333  0.000000  0.000000      2.000000
  0.000000  0.333333  0.000000      2.000000
  0.333333  0.333333  0.000000      2.000000
 -0.333333  0.333333  0.000000      2.000000

 Following cartesian coordinates:
            Coordinates               Weight
  0.000000  0.000000  0.000000      1.000000
  0.024205  0.000000  0.000000      2.000000
  0.000000  0.034851  0.000000      2.000000
  0.024205  0.034851  0.000000      2.000000
 -0.024205  0.034851  0.000000      2.000000