 vasp.5.4.4.18Apr17-6-g9f103f2a35 (build Jan 21 2021 13:12:21) complex

 executed on             LinuxIFC date 2021.10.31  14:09:06

 INCAR:
 POTCAR:    PAW_PBE Al 04Jan2001
 POTCAR:    PAW_PBE Nb_sv 25May2007
 POTCAR:    PAW_PBE Ta 17Jan2003
 POTCAR:    PAW_PBE Ti 08Apr2002
 POTCAR:   PAW_PBE Zr 08Apr2002
 POTCAR:    PAW_PBE O 08Apr2002

 POTCAR:    PAW_PBE Al 04Jan2001
   VRHFIN =Al: s2p1

   TITEL  = PAW_PBE Al 04Jan2001
   POMASS =   26.981; ZVAL   =    3.000    mass and valenz
   ENMAX  =  240.300; ENMIN  =  180.225 eV

 POTCAR:    PAW_PBE Nb_sv 25May2007
   VRHFIN =Nb: 4p5s4d

   TITEL  = PAW_PBE Nb_sv 25May2007
   POMASS =   92.910; ZVAL   =   13.000    mass and valenz
   ENMAX  =  293.235; ENMIN  =  219.927 eV

 POTCAR:    PAW_PBE Ta 17Jan2003
   VRHFIN =Ta:  6s5d

   TITEL  = PAW_PBE Ta 17Jan2003
   POMASS =  180.948; ZVAL   =    5.000    mass and valenz
   ENMAX  =  223.667; ENMIN  =  167.750 eV

 POTCAR:    PAW_PBE Ti 08Apr2002
   VRHFIN =Ti: d3 s1

   TITEL  = PAW_PBE Ti 08Apr2002
   POMASS =   47.880; ZVAL   =    4.000    mass and valenz
   ENMAX  =  178.330; ENMIN  =  133.747 eV

 POTCAR:   PAW_PBE Zr 08Apr2002
   VRHFIN =Zr: 5s4d5p

   TITEL  = PAW_PBE Zr 08Apr2002
   POMASS =   91.224; ZVAL   =    4.000    mass and valenz
   ENMAX  =  154.632; ENMIN  =  115.974 eV
   QCUT   =   -3.371; QGAM   =    6.742    optimization parameters

   Description
     l     E      TYP  RCUT    TYP  RCUT
     2   .000     23  3.000
     2   .000     23  3.000
     0   .000     23  3.000
     0  2.000     23  3.000
     1  -.400     23  3.000
     3   .000      7   .000

 POTCAR:    PAW_PBE O 08Apr2002
   VRHFIN =O: s2p4

   TITEL  = PAW_PBE O 08Apr2002
   POMASS =   16.000; ZVAL   =    6.000    mass and valenz
   ENMAX  =  400.000; ENMIN  =  300.000 eV

 WARNING: PSMAXN for non-local potential too small
          PSMAXN should be >   12.5490833729506       NTYP=           5
  PAW_PBE Al 04Jan2001                  :
  PAW_PBE Nb_sv 25May2007               :
  PAW_PBE Ta 17Jan2003                  :
  PAW_PBE Ti 08Apr2002                  :
 PAW_PBE Zr 08Apr2002                   :
  PAW_PBE O 08Apr2002                   :

 POSCAR: Al Nb Ta Ti Zr
  positions in direct lattice
  velocities in cartesian coordinates
 exchange correlation table for  LEXCH =        8
   RHO(1)=    0.500       N(1)  =     2000
   RHO(2)=  100.500       N(2)  =     4000

 ion  position               nearest neighbor table
   1  0.623  0.867  0.376-  34 2.83  25 2.88  24 2.88   9 2.88  13 2.90   4 2.91  61 2.93  15 3.16
                            41 3.35  17 3.40
   2  0.622  0.390  0.546-  31 2.78  14 2.78  23 2.79  26 2.79  33 2.81  10 2.88   7 2.89  62 2.98
                            18 3.03  16 3.14  17 3.18   3 3.31  42 3.33
   3  0.616  0.645  0.627-  32 2.78  14 2.87  23 2.88  33 2.90   8 2.91  27 2.95  26 3.01  45 3.14
                             2 3.31
   4  0.618  0.084  0.450-  31 2.80  24 2.86  34 2.87  13 2.88   1 2.91  25 2.92   7 2.92  10 2.93
                            62 2.99  12 3.15  28 3.16  46 3.24
   5  0.976  0.640  0.554-  30 2.76  27 2.82  42 2.92  56 2.96  54 2.99  59 3.02  52 3.02  58 3.07
                            63 3.08  47 3.16  57 3.34
   6  0.980  0.121  0.378-  29 2.80  28 2.80  53 2.91  41 2.96  51 3.05  55 3.05  60 3.08  57 3.37

   7  0.729  0.343  0.458-  28 2.77  29 2.83  31 2.85   2 2.89  17 2.89  11 2.90   4 2.92  62 3.02
                            63 3.07  42 3.07
   8  0.726  0.904  0.621-  30 2.62  12 2.73  27 2.74  32 2.75  18 2.80   3 2.91  64 3.11  62 3.14

   9  0.517  0.608  0.367-  35 2.84  15 2.85  17 2.87   1 2.88  11 2.89  61 2.95  43 3.10
  10  0.514  0.132  0.541-  18 2.77  36 2.78  16 2.80  12 2.86   2 2.88   4 2.93  31 2.96  46 2.96
                            62 3.09  44 3.12
  11  0.618  0.343  0.369-  24 2.75  34 2.83  31 2.87   9 2.89   7 2.90  61 2.96  43 3.27
  12  0.621  0.875  0.538-  13 2.70   8 2.73  32 2.73  23 2.80  25 2.82  10 2.86  33 2.91  62 2.93
                             4 3.15  44 3.36
  13  0.742  0.843  0.462-  12 2.70  17 2.87   4 2.88  30 2.88   1 2.90  28 2.94  63 2.98  23 2.98
                            41 3.05  57 3.27  62 3.46
  14  0.743  0.407  0.627-  27 2.71   2 2.78  42 2.81  18 2.82   3 2.87  64 2.99  58 3.13
  15  0.394  0.847  0.369-  22 2.68  19 2.76  25 2.83  34 2.84   9 2.85  39 2.98   1 3.16  46 3.43

  16  0.395  0.369  0.542-  20 2.64  21 2.65  26 2.74  10 2.80  33 2.85  31 2.86  37 2.90  40 3.07
                             2 3.14
  17  0.619  0.602  0.458-  25 2.81  23 2.81  33 2.82  31 2.85   9 2.87  13 2.87   7 2.89  61 2.95
                            35 3.03   2 3.18   1 3.40  63 3.44
  18  0.629  0.162  0.622-  26 2.77  10 2.77  62 2.78   8 2.80  14 2.82  32 2.84   2 3.03  64 3.31
                            36 3.31
  19  0.279  0.834  0.451-  15 2.76  35 2.94  46 2.96  39 2.97  25 2.99  44 3.00  60 3.07  51 3.08
                            47 3.12  56 3.17
  20  0.285  0.381  0.621-  16 2.64  36 2.84  26 2.94  45 2.98  21 2.99  52 3.04  59 3.05  40 3.14
                            48 3.15
  21  0.280  0.592  0.541-  16 2.65  59 2.89  45 2.93  35 2.98  52 2.99  20 2.99  44 3.00  33 3.04
                            37 3.06  47 3.10  56 3.14
  22  0.283  0.077  0.361-  15 2.68  46 2.97  43 2.97  34 2.99  51 3.02  55 3.10  60 3.10
  23  0.734  0.632  0.541-  27 2.70  30 2.77   2 2.79  12 2.80  17 2.81   3 2.88  63 2.97  13 2.98
                            42 2.98
  24  0.740  0.115  0.366-  29 2.73  11 2.75  28 2.85   4 2.86   1 2.88  41 3.00
  25  0.496  0.836  0.458-  35 2.78  17 2.81  12 2.82  15 2.83   1 2.88   4 2.92  44 2.98  19 2.99
                            46 2.99  33 3.04
  26  0.498  0.381  0.627-  16 2.74  18 2.77   2 2.79  36 2.87  20 2.94   3 3.01  45 3.02
  27  0.831  0.661  0.626-  23 2.70  14 2.71   8 2.74   5 2.82  58 2.83  30 2.87   3 2.95  54 3.13
                            42 3.49
  28  0.847  0.110  0.455-  62 2.76   7 2.77   6 2.80  24 2.85  57 2.90  13 2.94  53 2.98  29 3.15
                             4 3.16  50 3.24  41 3.36
  29  0.852  0.349  0.376-  24 2.73   6 2.80   7 2.83  53 2.94  61 2.98  49 3.07  28 3.15  63 3.25

  30  0.851  0.866  0.551-   8 2.62   5 2.76  23 2.77  27 2.87  13 2.88  54 2.90  57 2.95  62 2.98
                            50 3.10
  31  0.522  0.339  0.461-   2 2.78   4 2.80  17 2.85   7 2.85  35 2.86  16 2.86  11 2.87  46 2.95
                            10 2.96  43 3.11
  32  0.526  0.905  0.624-  65 2.00  12 2.73   8 2.75   3 2.78  36 2.82  18 2.84  44 2.97  45 3.07

  33  0.500  0.626  0.540-   2 2.81  17 2.82  35 2.85  16 2.85   3 2.90  12 2.91  44 2.91  45 2.93
                            25 3.04  21 3.04
  34  0.499  0.102  0.365-  11 2.83   1 2.83  15 2.84   4 2.87  43 2.91  46 2.98  22 2.99
  35  0.400  0.580  0.451-  25 2.78   9 2.84  33 2.85  31 2.86  37 2.88  39 2.93  19 2.94  21 2.98
                            17 3.03  43 3.08
  36  0.390  0.125  0.620-  65 2.20  10 2.78  40 2.82  32 2.82  20 2.84  26 2.87  38 2.95  44 3.15
                            18 3.31
  37  0.255  0.366  0.464-  35 2.88  16 2.90  47 3.02  60 3.04  43 3.05  21 3.06  55 3.08  46 3.08
                            52 3.11  40 3.23  39 3.39
  38  0.237  0.911  0.626-  65 2.02  56 2.83  59 2.91  44 2.94  36 2.95  40 3.02  48 3.12  45 3.23
                            54 3.26
  39  0.252  0.614  0.376-  35 2.93  19 2.97  15 2.98  47 3.07  43 3.07  51 3.07  55 3.08  37 3.39
                            49 3.53
  40  0.244  0.134  0.548-  36 2.82  38 3.02  60 3.04  16 3.07  52 3.07  44 3.10  48 3.14  20 3.14
                            56 3.16  46 3.22  37 3.23  50 3.42
  41  0.865  0.859  0.370-   6 2.96  24 3.00  61 3.05  13 3.05  57 3.06  49 3.12   1 3.35  28 3.36
                            51 3.49  63 3.53
  42  0.864  0.383  0.545-  14 2.81   5 2.92  62 2.98  23 2.98   7 3.07  58 3.09  63 3.13  50 3.15
                            53 3.20  64 3.33   2 3.33  52 3.45  27 3.49
  43  0.381  0.352  0.373-  34 2.91  22 2.97  37 3.05  39 3.07  35 3.08   9 3.10  31 3.11  55 3.26
                            11 3.27  46 3.29
  44  0.377  0.873  0.547-  65 2.44  33 2.91  38 2.94  32 2.97  25 2.98  21 3.00  19 3.00  40 3.10
                            45 3.11  10 3.12  36 3.15  46 3.35  56 3.36  12 3.36
  45  0.388  0.654  0.630-  65 2.36  21 2.93  33 2.93  20 2.98  26 3.02  32 3.07  44 3.11   3 3.14
                            38 3.23  59 3.30
  46  0.384  0.104  0.456-  31 2.95  19 2.96  10 2.96  22 2.97  34 2.98  25 2.99  37 3.08  40 3.22
                             4 3.24  60 3.27  43 3.29  44 3.35  15 3.43
  47  0.117  0.611  0.465-  37 3.02  56 3.06  39 3.07  21 3.10  19 3.12  53 3.14  49 3.15   5 3.16
                            57 3.17  52 3.17  63 3.42  51 3.52  55 3.80
  48  0.108  0.177  0.638-  66 2.08  50 3.06  38 3.12  40 3.14  20 3.15  52 3.18  58 3.22  54 3.26
                            64 3.32
  49  0.996  0.593  0.368-  63 3.05  29 3.07  41 3.12  47 3.15  51 3.16  55 3.23  53 3.44  39 3.53
                            61 3.65  57 3.82
  50  0.996  0.114  0.546-  48 3.06  64 3.07  30 3.10  52 3.14  54 3.15  42 3.15  57 3.19  56 3.21
                            28 3.24  53 3.29  60 3.36  40 3.42  62 3.55
  51  0.119  0.872  0.375-  60 3.00  22 3.02   6 3.05  39 3.07  19 3.08  57 3.16  49 3.16  41 3.49
                            47 3.52
  52  0.114  0.394  0.551-  21 2.99   5 3.02  59 3.04  20 3.04  40 3.07  37 3.11  50 3.14  47 3.17
                            48 3.18  53 3.20  58 3.27  42 3.45
  53  1.000  0.331  0.453-   6 2.91  29 2.94  28 2.98  60 3.06  63 3.08  55 3.09  47 3.14  52 3.20
                            42 3.20  50 3.29  49 3.44
  54  0.001  0.876  0.624-  30 2.90  56 2.99   5 2.99  59 3.09  27 3.13  50 3.15  64 3.23  38 3.26
                            48 3.26
  55  0.145  0.332  0.368-   6 3.05  37 3.08  39 3.08  53 3.09  22 3.10  49 3.23  60 3.24  43 3.26
                            47 3.80
  56  0.135  0.845  0.540-  38 2.83   5 2.96  54 2.99  57 2.99  59 3.03  47 3.06  21 3.14  40 3.16
                            19 3.17  50 3.21  44 3.36  60 3.42
  57  0.979  0.876  0.465-  28 2.90  30 2.95  56 2.99  41 3.06  63 3.11  60 3.13  51 3.16  47 3.17
                            50 3.19  13 3.27   5 3.34   6 3.37  49 3.82
  58  0.966  0.444  0.642-  66 2.08  27 2.83   5 3.07  42 3.09  64 3.10  14 3.13  59 3.16  48 3.22
                            52 3.27
  59  0.150  0.634  0.621-  21 2.89  38 2.91   5 3.02  56 3.03  52 3.04  20 3.05  54 3.09  58 3.16
                            45 3.30
  60  0.147  0.092  0.451-  51 3.00  37 3.04  40 3.04  53 3.06  19 3.07   6 3.08  22 3.10  57 3.13
                            55 3.24  46 3.27  50 3.36  56 3.42
  61  0.731  0.606  0.367-   1 2.93  17 2.95   9 2.95  11 2.96  29 2.98  41 3.05  63 3.17  49 3.65

  62  0.739  0.129  0.538-  28 2.76  18 2.78  12 2.93   2 2.98  30 2.98  42 2.98   4 2.99   7 3.02
                            10 3.09   8 3.14  64 3.23  13 3.46  50 3.55
  63  0.869  0.592  0.458-  23 2.97  13 2.98  49 3.05   7 3.07   5 3.08  53 3.08  57 3.11  42 3.13
                            61 3.17  29 3.25  47 3.42  17 3.44  41 3.53
[...]
     11.43869      6.31746     17.30315        -0.003793      0.003687      0.005088
     11.66772      1.05372     12.57547        -0.087411     -0.208024     -0.697286
     11.73919      3.33868     10.41199        -0.292899     -0.114819      0.577420
     11.72422      8.28254     15.23216        -0.002535     -0.009436      0.001478
      7.18522      3.24644     12.75390        -0.173342      0.347704     -0.530607
      7.24690      8.65481     17.25963        -0.000824     -0.002166      0.001765
      6.88984      5.98306     14.93969         0.001117      0.002288     -0.001971
      6.87795      0.97560     10.08695        -0.071329     -0.048384      0.168136
      5.51084      5.55012     12.48419         0.006269      0.399156     -0.198243
      5.37313      1.19461     17.14144         0.001447      0.000776      0.001377
      3.51249      3.50019     12.83519        -0.090876      0.032868     -0.478725
      3.26023      8.70950     17.30874        -0.000067     -0.000780     -0.002412
      3.46798      5.87237     10.40868         0.065197     -0.244629     -0.089899
      3.35857      1.27863     15.17199        -0.000472     -0.000546     -0.003548
     11.91771      8.21633     10.24534        -0.145291      0.037830      0.642740
     11.89492      3.66053     15.08276         0.002533      0.000328     -0.002981
      5.24135      3.36543     10.32679         0.161455      0.089561      0.151275
      5.19686      8.34557     15.13089        -0.000815     -0.000757     -0.000676
      5.34648      6.25064     17.41997        -0.002995      0.000575     -0.000120
      5.28930      0.99064     12.60849         0.113883     -0.202958     -0.275455
      1.60538      5.84491     12.85122         0.151528     -0.203472     -0.382000
      1.49411      1.69732     17.65876         0.070710     -0.032614     -0.059145
     13.72038      5.67134     10.18293         0.210447      0.119007      0.664660
     13.71614      1.08622     15.09163        -0.000291     -0.005565     -0.008498
      1.63456      8.33987     10.36453        -0.041158     -0.457379      0.153841
      1.56726      3.77051     15.25082         0.000292     -0.000095      0.002105
     13.76831      3.16119     12.53308         0.135821      0.388484     -0.324184
      0.01978      8.38200     17.26911         0.001900     -0.001104      0.000553
      1.99440      3.17314     10.17666        -0.105359     -0.177667      0.693580
      1.85460      8.07941     14.93059         0.000084     -0.000752     -0.002425
     13.48051      8.37930     12.86886        -0.080259      0.013147     -0.412197
     13.30852      4.25032     17.76641        -0.011378      0.075990     -0.055944
      2.05907      6.06091     17.18575         0.001702     -0.002818      0.002427
      2.02729      0.87737     12.46815        -0.017686      0.457980     -0.453083
     10.07171      5.79402     10.14663         0.151508     -0.608196      0.207630
     10.17288      1.23777     14.89419         0.000818     -0.000890     -0.000411
     11.97051      5.66181     12.67660        -0.243271      0.407041     -0.393615
     11.95782      1.46120     17.57795        -0.045170     -0.032447     -0.045853
      5.26466      8.60508     17.55468         0.001239      0.000127     -0.004887
     13.57504      2.38856     18.63751        -0.014912     -0.013564      0.170125
    total drift:                               -0.001967      0.000218      0.003815

  FREE ENERGIE OF THE ION-ELECTRON SYSTEM (eV)
  free  energy   TOTEN  =      -526.18696824 eV

  energy  without entropy=     -526.19277188  energy(sigma->0) =     -526.18841915

 d Force =-0.5786126E-04[-0.510E-02, 0.499E-02]  d Energy =-0.1264525E-04-0.452E-04
 d Force =-0.2395013E+02[-0.239E+02,-0.240E+02]  d Ewald  =-0.2395054E+02 0.415E-03

 Finite differences progress:
  Degree of freedom:   6/  6
  Displacement:        2/  2
  Total:              12/ 12

 SECOND DERIVATIVES (NOT SYMMETRIZED)
              65X         65Y         65Z         66X         66Y         66Z
 65X   -15.227108    0.378617    0.236010    0.017864   -0.001428    0.005994
 65Y     0.392518   -5.439829    0.610228   -0.007081    0.004621    0.000870
 65Z     0.256774    0.600726   -5.188924   -0.013243    0.023691    0.000021
 66X     0.018231   -0.011481   -0.009208  -10.320204    1.796449    0.968191
 66Y     0.002257   -0.001925    0.035379    1.802662  -10.347857    0.705237
 66Z     0.008899   -0.000661    0.002898    0.982263    0.724454  -11.213084

 Eigenvectors and eigenvalues of the dynamical matrix

   1 f  =   15.261147 THz    95.888612 2PiTHz  509.057040 cm-1    63.115052 meV
             X         Y         Z           dx          dy          dz
      8.576308  8.296846 10.398452            0           0           0
      8.562017  3.732671 15.115082            0           0           0
      8.488935  6.172608 17.345732            0           0           0
      8.516162  0.799950 12.438738            0           0           0
     13.446268  6.123461 15.338014            0           0           0
     13.490936  1.153156 10.447489            0           0           0
     10.033436  3.284281 12.674110            0           0           0
      9.999868  8.647427 17.166186            0           0           0
      7.125241  5.815767 10.157648            0           0           0
      7.080732  1.263335 14.952830            0           0           0
      8.512220  3.280358 10.204496            0           0           0
      8.546333  8.370247 14.877421            0           0           0
     10.222632  8.067230 12.779914            0           0           0
     10.228712  3.888320 17.332698            0           0           0
      5.426642  8.104815 10.206391            0           0           0
      5.434711  3.533603 15.001537            0           0           0
      8.528427  5.754231 12.656400            0           0           0
      8.667102  1.545235 17.209018            0           0           0
      3.848293  7.973169 12.472590            0           0           0
      3.923897  3.641414 17.167962            0           0           0
      3.862180  5.661849 14.966610            0           0           0
      3.900631  0.738911 10.000000            0           0           0
     10.109753  6.047542 14.964561            0           0           0
     10.191124  1.104695 10.137364            0           0           0
      6.829455  7.994241 12.666696            0           0           0
      6.863949  3.643947 17.331554            0           0           0
     11.438686  6.317464 17.303152            0           0           0
     11.667723  1.053724 12.575471            0           0           0
     11.739193  3.338683 10.411988            0           0           0
     11.724223  8.282542 15.232160            0           0           0
      7.185217  3.246439 12.753898            0           0           0
      7.246898  8.654805 17.259630            0           0           0
      6.889838  5.983058 14.939687            0           0           0
      6.877947  0.975598 10.086954            0           0           0
      5.510835  5.550117 12.484188            0           0           0
      5.373129  1.194610 17.141440            0           0           0
      3.512495  3.500193 12.835186            0           0           0
      3.260225  8.709499 17.308736            0           0           0
      3.467984  5.872368 10.408681            0           0           0
      3.358567  1.278635 15.171992            0           0           0
     11.917712  8.216334 10.245339            0           0           0
     11.894916  3.660525 15.082763            0           0           0
      5.241350  3.365425 10.326787            0           0           0
      5.196864  8.345575 15.130891            0           0           0
      5.346477  6.250638 17.419971            0           0           0
      5.289302  0.990642 12.608494            0           0           0
      1.605379  5.844910 12.851215            0           0           0
      1.494114  1.697322 17.658755            0           0           0
     13.720378  5.671342 10.182934            0           0           0
     13.716144  1.086217 15.091630            0           0           0
      1.634565  8.339874 10.364530            0           0           0
      1.567263  3.770515 15.250825            0           0           0
     13.768315  3.161194 12.533077            0           0           0
      0.019778  8.382000 17.269115            0           0           0
      1.994404  3.173136 10.176661            0           0           0
      1.854601  8.079408 14.930588            0           0           0
     13.480506  8.379299 12.868857            0           0           0
     13.308525  4.250318 17.766411            0           0           0
      2.059072  6.060911 17.185747            0           0           0
      2.027287  0.877370 12.468150            0           0           0
     10.071711  5.794019 10.146627            0           0           0
     10.172877  1.237767 14.894194            0           0           0
     11.970507  5.661807 12.676598            0           0           0
     11.957820  1.461199 17.577954            0           0           0
      5.264659  8.605080 17.554684     0.999024   -0.037909   -0.022200
     13.575039  2.388559 18.652506    -0.004203    0.001769   -0.001132

[...]

   6 f  =    8.453201 THz    53.113026 2PiTHz  281.968412 cm-1    34.959640 meV
             X         Y         Z           dx          dy          dz
      8.576308  8.296846 10.398452            0           0           0
      8.562017  3.732671 15.115082            0           0           0
      8.488935  6.172608 17.345732            0           0           0
      8.516162  0.799950 12.438738            0           0           0
     13.446268  6.123461 15.338014            0           0           0
     13.490936  1.153156 10.447489            0           0           0
     10.033436  3.284281 12.674110            0           0           0
      9.999868  8.647427 17.166186            0           0           0
      7.125241  5.815767 10.157648            0           0           0
      7.080732  1.263335 14.952830            0           0           0
      8.512220  3.280358 10.204496            0           0           0
      8.546333  8.370247 14.877421            0           0           0
     10.222632  8.067230 12.779914            0           0           0
     10.228712  3.888320 17.332698            0           0           0
      5.426642  8.104815 10.206391            0           0           0
      5.434711  3.533603 15.001537            0           0           0
      8.528427  5.754231 12.656400            0           0           0
      8.667102  1.545235 17.209018            0           0           0
      3.848293  7.973169 12.472590            0           0           0
      3.923897  3.641414 17.167962            0           0           0
      3.862180  5.661849 14.966610            0           0           0
      3.900631  0.738911 10.000000            0           0           0
     10.109753  6.047542 14.964561            0           0           0
     10.191124  1.104695 10.137364            0           0           0
      6.829455  7.994241 12.666696            0           0           0
      6.863949  3.643947 17.331554            0           0           0
     11.438686  6.317464 17.303152            0           0           0
     11.667723  1.053724 12.575471            0           0           0
     11.739193  3.338683 10.411988            0           0           0
     11.724223  8.282542 15.232160            0           0           0
      7.185217  3.246439 12.753898            0           0           0
      7.246898  8.654805 17.259630            0           0           0
      6.889838  5.983058 14.939687            0           0           0
      6.877947  0.975598 10.086954            0           0           0
      5.510835  5.550117 12.484188            0           0           0
      5.373129  1.194610 17.141440            0           0           0
      3.512495  3.500193 12.835186            0           0           0
      3.260225  8.709499 17.308736            0           0           0
      3.467984  5.872368 10.408681            0           0           0
      3.358567  1.278635 15.171992            0           0           0
     11.917712  8.216334 10.245339            0           0           0
     11.894916  3.660525 15.082763            0           0           0
      5.241350  3.365425 10.326787            0           0           0
      5.196864  8.345575 15.130891            0           0           0
      5.346477  6.250638 17.419971            0           0           0
      5.289302  0.990642 12.608494            0           0           0
      1.605379  5.844910 12.851215            0           0           0
      1.494114  1.697322 17.658755            0           0           0
     13.720378  5.671342 10.182934            0           0           0
     13.716144  1.086217 15.091630            0           0           0
      1.634565  8.339874 10.364530            0           0           0
      1.567263  3.770515 15.250825            0           0           0
     13.768315  3.161194 12.533077            0           0           0
      0.019778  8.382000 17.269115            0           0           0
      1.994404  3.173136 10.176661            0           0           0
      1.854601  8.079408 14.930588            0           0           0
     13.480506  8.379299 12.868857            0           0           0
     13.308525  4.250318 17.766411            0           0           0
      2.059072  6.060911 17.185747            0           0           0
      2.027287  0.877370 12.468150            0           0           0
     10.071711  5.794019 10.146627            0           0           0
     10.172877  1.237767 14.894194            0           0           0
     11.970507  5.661807 12.676598            0           0           0
     11.957820  1.461199 17.577954            0           0           0
      5.264659  8.605080 17.554684     0.041214    0.634377    0.771913
     13.575039  2.388559 18.652506    -0.001126    0.003879    0.000486

 Finite differences POTIM=  1.500000000000000E-002
  LATTYP: Found a simple orthorhombic cell.
 ALAT       =     9.5644817352
 B/A-ratio  =     1.4398428730
 C/A-ratio  =     2.8922184390

  Lattice vectors:

 A1 = (   0.0000000000,  -9.5644817352,   0.0000000000)
 A2 = ( -13.7713508606,   0.0000000000,   0.0000000000)
 A3 = (   0.0000000000,   0.0000000000, -27.6625704340)

Analysis of symmetry for initial positions (statically):
 Subroutine PRICEL returns:
 Original cell was already a primitive cell.

[...]

The static configuration has the point symmetry C_1 .

Analysis of symmetry for dynamics (positions and initial velocities):
 Subroutine PRICEL returns:
 Original cell was already a primitive cell.

[...]

The dynamic configuration has the point symmetry C_1 .

Analysis of constrained symmetry for selective dynamics:
 Subroutine PRICEL returns:
 Original cell was already a primitive cell.

 Routine SETGRP: Setting up the symmetry group for a
 simple orthorhombic supercell.

 Subroutine GETGRP returns: Found  1 space group operations
 (whereof  1 operations were pure point group operations)
 out of a pool of  8 trial point group operations.

The constrained configuration has the point symmetry C_1 .

 Subroutine INISYM returns: Found  1 space group operations
 (whereof  1 operations are pure point group operations),
 and found     1 'primitive' translations

 KPOINTS: k-points

Automatic generation of k-mesh.
Space group operators:
 irot       det(A)        alpha          n_x          n_y          n_z        tau_x        tau_y        tau_z
    1     1.000000     0.000001     1.000000     0.000000     0.000000     0.000000     0.000000     0.000000

 Subroutine IBZKPT returns following result:

 Found      5 irreducible k-points:

 Following reciprocal coordinates:
            Coordinates               Weight
  0.000000  0.000000  0.000000      1.000000
  0.333333  0.000000  0.000000      2.000000
  0.000000  0.333333  0.000000      2.000000
  0.333333  0.333333  0.000000      2.000000
 -0.333333  0.333333  0.000000      2.000000

 Following cartesian coordinates:
            Coordinates               Weight
  0.000000  0.000000  0.000000      1.000000
  0.024205  0.000000  0.000000      2.000000
  0.000000  0.034851  0.000000      2.000000
  0.024205  0.034851  0.000000      2.000000
 -0.024205  0.034851  0.000000      2.000000