 vasp.5.4.1 05Feb16 (build Mar 19 2020 08:54:17) complex

 executed on           IFC91_ompi date 2021.10.24  12:45:34

 INCAR:
 POTCAR:    PAW_PBE Al 04Jan2001
 POTCAR:    PAW_PBE Nb_sv 25May2007
 POTCAR:    PAW_PBE Ta 17Jan2003
 POTCAR:    PAW_PBE Ti 08Apr2002
 POTCAR:   PAW_PBE Zr 08Apr2002
 POTCAR:    PAW_PBE O 08Apr2002

 POTCAR:    PAW_PBE Al 04Jan2001
   VRHFIN =Al: s2p1

   TITEL  = PAW_PBE Al 04Jan2001
   POMASS =   26.981; ZVAL   =    3.000    mass and valenz
   ENMAX  =  240.300; ENMIN  =  180.225 eV

 POTCAR:    PAW_PBE Nb_sv 25May2007
   VRHFIN =Nb: 4p5s4d

   TITEL  = PAW_PBE Nb_sv 25May2007
   POMASS =   92.910; ZVAL   =   13.000    mass and valenz
   ENMAX  =  293.235; ENMIN  =  219.927 eV

 POTCAR:    PAW_PBE Ta 17Jan2003
   VRHFIN =Ta:  6s5d

   TITEL  = PAW_PBE Ta 17Jan2003
   POMASS =  180.948; ZVAL   =    5.000    mass and valenz
   ENMAX  =  223.667; ENMIN  =  167.750 eV

 POTCAR:    PAW_PBE Ti 08Apr2002
   VRHFIN =Ti: d3 s1

   TITEL  = PAW_PBE Ti 08Apr2002
   POMASS =   47.880; ZVAL   =    4.000    mass and valenz
   ENMAX  =  178.330; ENMIN  =  133.747 eV

 POTCAR:   PAW_PBE Zr 08Apr2002
   VRHFIN =Zr: 5s4d5p

   TITEL  = PAW_PBE Zr 08Apr2002
   POMASS =   91.224; ZVAL   =    4.000    mass and valenz
   ENMAX  =  154.632; ENMIN  =  115.974 eV
   QCUT   =   -3.371; QGAM   =    6.742    optimization parameters

   Description
     l     E      TYP  RCUT    TYP  RCUT
     2   .000     23  3.000
     2   .000     23  3.000
     0   .000     23  3.000
     0  2.000     23  3.000
     1  -.400     23  3.000
     3   .000      7   .000

 POTCAR:    PAW_PBE O 08Apr2002
   VRHFIN =O: s2p4

   TITEL  = PAW_PBE O 08Apr2002
   POMASS =   16.000; ZVAL   =    6.000    mass and valenz
   ENMAX  =  400.000; ENMIN  =  300.000 eV

 WARNING: PSMAXN for non-local potential too small
          PSMAXN should be >   12.5490833729506       NTYP=           5
  PAW_PBE Al 04Jan2001                  :
  PAW_PBE Nb_sv 25May2007               :
  PAW_PBE Ta 17Jan2003                  :
  PAW_PBE Ti 08Apr2002                  :
 PAW_PBE Zr 08Apr2002                   :
  PAW_PBE O 08Apr2002                   :

 POSCAR: Al Nb Ta Ti Zr
  positions in direct lattice
  velocities in cartesian coordinates
 exchange correlation table for  LEXCH =        8
   RHO(1)=    0.500       N(1)  =     2000
   RHO(2)=  100.500       N(2)  =     4000

 ion  position               nearest neighbor table
   1  0.623  0.867  0.376-  34 2.83  25 2.88  24 2.88   9 2.88  13 2.90   4 2.91  61 2.93  15 3.16
                            41 3.35  17 3.40
   2  0.619  0.402  0.546-  31 2.77  33 2.79   3 2.84  23 2.85  26 2.88  14 2.91   7 2.91  10 2.93
                            62 2.97  17 3.10  16 3.21  42 3.41
   3  0.632  0.625  0.613-  75 1.90  23 2.64  32 2.66  14 2.70   8 2.75   2 2.84  27 2.85  33 2.86
                            26 2.96  12 3.05
   4  0.618  0.084  0.450-  31 2.80  24 2.86  34 2.87  13 2.88   1 2.91  25 2.92   7 2.92  62 3.00
                            10 3.09  28 3.16  46 3.24
   5  0.974  0.641  0.552-  30 2.82  27 2.90  56 2.92  42 2.94  63 3.01  52 3.02  54 3.12  47 3.12
                            23 3.19  59 3.21  57 3.29  58 3.40
   6  0.980  0.121  0.378-  29 2.80  28 2.80  53 2.91  41 2.96  51 3.05  55 3.05  60 3.08  57 3.37

   7  0.729  0.343  0.458-  28 2.77  29 2.83  31 2.85  17 2.89  11 2.90   2 2.91   4 2.92  63 3.07
                            62 3.07  42 3.14
   8  0.727  0.875  0.625-  71 2.07  27 2.62  30 2.65  18 2.71   3 2.75  12 2.77  32 2.91  64 3.07
                            62 3.36
   9  0.517  0.608  0.367-  35 2.84  15 2.85  17 2.87   1 2.88  11 2.89  61 2.95  43 3.10
  10  0.510  0.139  0.545-  16 2.79  36 2.89  18 2.92   2 2.93  12 2.97  62 3.00  31 3.02  46 3.04
                             4 3.09  44 3.09
  11  0.618  0.343  0.369-  24 2.75  34 2.83  31 2.87   9 2.89   7 2.90  61 2.96  43 3.27
  12  0.614  0.867  0.542-   8 2.77  33 2.82  32 2.83  13 2.84  23 2.84  25 2.86  10 2.97  62 2.98
                             3 3.05  44 3.28
  13  0.742  0.843  0.462-  12 2.84  23 2.85  17 2.87   4 2.88   1 2.90  30 2.91  28 2.94  63 2.98
                            41 3.05  57 3.27
  14  0.730  0.389  0.635-  76 1.95  74 2.02   3 2.70  27 2.89   2 2.91  64 2.99  42 3.05  18 3.08
                            58 3.16
  15  0.394  0.847  0.369-  22 2.68  19 2.76  25 2.83  34 2.84   9 2.85  39 2.98   1 3.16  46 3.43

  16  0.387  0.372  0.546-  21 2.65  10 2.79  26 2.79  20 2.83  33 2.88  37 2.91  40 2.91  31 3.00
                             2 3.21  45 3.46
  17  0.619  0.602  0.458-  33 2.78  23 2.80  25 2.81  31 2.85   9 2.87  13 2.87   7 2.89  61 2.95
                            35 3.03   2 3.10   1 3.40  63 3.44
  18  0.619  0.110  0.635-  72 1.99  74 2.04  71 2.09   8 2.71  32 2.91  10 2.92  62 2.99  36 3.02
                            14 3.08  26 3.15  64 3.27
  19  0.279  0.834  0.451-  15 2.76  35 2.94  46 2.96  39 2.97  44 2.97  25 2.99  60 3.07  51 3.08
                            47 3.12  21 3.18  56 3.26
  20  0.276  0.349  0.632-  69 1.99  70 2.03  67 2.18  16 2.83  36 2.96  48 3.01  45 3.05  26 3.08
                            40 3.09  52 3.14  59 3.29
  21  0.277  0.594  0.531-  16 2.65  35 2.79  45 2.86  47 2.87  37 2.88  52 3.01  33 3.02  56 3.02
                            44 3.08  19 3.18
  22  0.283  0.077  0.361-  15 2.68  46 2.97  43 2.97  34 2.99  51 3.02  55 3.10  60 3.10
  23  0.745  0.638  0.536-   3 2.64  30 2.75  63 2.79  17 2.80  12 2.84  13 2.85   2 2.85  27 2.89
                            42 3.03   5 3.19
  24  0.740  0.115  0.366-  29 2.73  11 2.75  28 2.85   4 2.86   1 2.88  41 3.00
  25  0.496  0.836  0.458-  35 2.78  17 2.81  15 2.83  12 2.86   1 2.88   4 2.92  33 2.92  44 2.96
                            19 2.99  46 2.99
  26  0.498  0.388  0.630-  70 1.98  74 2.02  75 2.25  16 2.79   2 2.88   3 2.96  20 3.08  36 3.10
                            18 3.15  45 3.18
  27  0.835  0.650  0.631-  76 2.02  68 2.07   8 2.62  58 2.76   3 2.85  14 2.89  23 2.89   5 2.90
                            54 3.08  30 3.08  42 3.51
  28  0.847  0.110  0.455-   7 2.77   6 2.80  24 2.85  57 2.90  62 2.94  13 2.94  53 2.98  50 3.13
                            29 3.15   4 3.16  41 3.36
  29  0.852  0.349  0.376-  24 2.73   6 2.80   7 2.83  53 2.94  61 2.98  49 3.07  28 3.15  63 3.25

  30  0.851  0.876  0.552-   8 2.65  23 2.75   5 2.82  13 2.91  57 2.97  50 2.99  62 3.00  54 3.04
                            27 3.08  64 3.44
  31  0.522  0.339  0.461-   2 2.77   4 2.80  17 2.85   7 2.85  35 2.86  11 2.87  46 2.95  16 3.00
                            10 3.02  43 3.11
  32  0.518  0.843  0.632-  72 2.01  65 2.08  75 2.14   3 2.66  12 2.83   8 2.91  18 2.91  36 2.92
                            45 2.93  44 3.11
  33  0.495  0.629  0.536-  35 2.72  17 2.78   2 2.79  12 2.82   3 2.86  16 2.88  44 2.91  25 2.92
                            21 3.02  45 3.14
  34  0.499  0.102  0.365-  11 2.83   1 2.83  15 2.84   4 2.87  43 2.91  46 2.98  22 2.99
  35  0.400  0.580  0.451-  33 2.72  25 2.78  21 2.79   9 2.84  31 2.86  37 2.88  39 2.93  19 2.94
                            17 3.03  43 3.08
  36  0.400  0.096  0.633-  72 1.97  70 2.02  67 2.06  65 2.15  10 2.89  32 2.92  20 2.96  18 3.02
                            38 3.03  26 3.10  40 3.16  44 3.20
  37  0.255  0.366  0.464-  21 2.88  35 2.88  16 2.91  47 3.02  60 3.04  43 3.05  55 3.08  46 3.08
                            52 3.17  40 3.17  39 3.39
  38  0.222  0.909  0.634-  73 1.90  65 2.05  67 2.10  56 2.82  59 3.03  36 3.03  48 3.07  54 3.09
                            45 3.10  44 3.25  40 3.28
  39  0.252  0.614  0.376-  35 2.93  19 2.97  15 2.98  47 3.07  43 3.07  51 3.07  55 3.08  37 3.39
                            49 3.53
  40  0.251  0.139  0.548-  67 2.36  16 2.91  44 3.02  60 3.07  20 3.09  52 3.11  46 3.15  36 3.16
                            37 3.17  48 3.21  38 3.28  56 3.30  50 3.56
  41  0.865  0.859  0.370-   6 2.96  24 3.00  61 3.05  13 3.05  57 3.06  49 3.12   1 3.35  28 3.36
                            51 3.49  63 3.53
  42  0.866  0.376  0.548-   5 2.94  62 3.01  23 3.03  14 3.05  50 3.09  58 3.12   7 3.14  53 3.23
                            63 3.23  64 3.40  52 3.41   2 3.41  27 3.51
  43  0.381  0.352  0.373-  34 2.91  22 2.97  37 3.05  39 3.07  35 3.08   9 3.10  31 3.11  55 3.26
                            11 3.27  46 3.29
  44  0.376  0.880  0.546-  65 2.32  33 2.91  25 2.96  19 2.97  40 3.02  21 3.08  10 3.09  32 3.11
                            45 3.14  36 3.20  38 3.25  46 3.28  12 3.28  56 3.31
  45  0.354  0.648  0.625-  69 2.10  75 2.15  65 2.20  21 2.86  32 2.93  20 3.05  38 3.10  59 3.11
                            33 3.14  44 3.14  26 3.18  16 3.46
  46  0.384  0.104  0.456-  31 2.95  19 2.96  22 2.97  34 2.98  25 2.99  10 3.04  37 3.08  40 3.15
                             4 3.24  60 3.27  44 3.28  43 3.29  15 3.43
  47  0.117  0.611  0.465-  21 2.87  37 3.02  39 3.07  56 3.11  19 3.12   5 3.12  53 3.14  49 3.15
                            57 3.17  52 3.20  63 3.42  51 3.52  55 3.80
  48  0.095  0.172  0.634-  66 2.09  67 2.20  50 2.97  20 3.01  38 3.07  52 3.09  58 3.13  54 3.20
                            40 3.21  64 3.32
  49  0.996  0.593  0.368-  63 3.05  29 3.07  41 3.12  47 3.15  51 3.16  55 3.23  53 3.44  39 3.53
                            61 3.65  57 3.82
  50  0.994  0.110  0.541-  48 2.97  30 2.99  57 3.07  42 3.09  28 3.13  52 3.22  53 3.23  60 3.28
                            56 3.29  64 3.29  54 3.43  40 3.56  62 3.67
  51  0.119  0.872  0.375-  60 3.00  22 3.02   6 3.05  39 3.07  19 3.08  57 3.16  49 3.16  41 3.49
                            47 3.52
  52  0.113  0.396  0.553-  21 3.01   5 3.02  48 3.09  40 3.11  20 3.14  37 3.17  59 3.19  47 3.20
                            50 3.22  53 3.25  42 3.41  58 3.45
  53  1.000  0.331  0.453-   6 2.91  29 2.94  28 2.98  60 3.06  63 3.08  55 3.09  47 3.14  50 3.23
                            42 3.23  52 3.25  49 3.44
  54  0.000  0.867  0.632-  68 2.17  73 2.17  59 2.96  30 3.04  27 3.08  56 3.08  38 3.09   5 3.12
                            48 3.20  64 3.24  50 3.43
  55  0.145  0.332  0.368-   6 3.05  37 3.08  39 3.08  53 3.09  22 3.10  49 3.23  60 3.24  43 3.26
                            47 3.80
  56  0.137  0.835  0.545-  38 2.82   5 2.92  21 3.02  54 3.08  47 3.11  57 3.13  19 3.26  59 3.29
                            50 3.29  40 3.30  44 3.31  60 3.59
  57  0.979  0.876  0.465-  28 2.90  30 2.97  41 3.06  50 3.07  63 3.11  60 3.13  56 3.13  51 3.16
                            47 3.17  13 3.27   5 3.29   6 3.37  49 3.82
  58  0.956  0.427  0.650-  66 2.07  76 2.13  68 2.20  27 2.76  59 3.05  42 3.12  48 3.13  64 3.14
                            14 3.16   5 3.40  52 3.45
  59  0.131  0.621  0.638-  69 2.14  73 2.19  68 2.22  54 2.96  38 3.03  58 3.05  45 3.11  52 3.19
                             5 3.21  56 3.29  20 3.29
  60  0.147  0.092  0.451-  51 3.00  37 3.04  53 3.06  19 3.07  40 3.07   6 3.08  22 3.10  57 3.13
                            55 3.24  46 3.27  50 3.28  56 3.59
  61  0.731  0.606  0.367-   1 2.93  17 2.95   9 2.95  11 2.96  29 2.98  41 3.05  63 3.17  49 3.65

[...]
   0.864E+00 0.724E+01 0.254E+03   -.689E+00 -.700E+01 -.254E+03   -.236E+00 -.271E+00 -.880E-01   0.138E-01 0.595E-04 0.324E-01
   -.613E+02 0.817E+01 -.105E+02   0.610E+02 -.777E+01 0.998E+01   0.332E+00 -.401E+00 0.512E+00   -.830E-02 0.186E-02 0.279E-01
   -.449E+02 0.472E+01 0.372E+03   0.443E+02 -.409E+01 -.370E+03   0.687E+00 -.102E+01 -.226E+01   -.171E-01 0.582E-03 0.204E-01
   -.387E+03 0.830E+01 0.744E+03   0.387E+03 -.753E+01 -.745E+03   0.255E+00 -.360E+00 0.942E+00   0.186E-01 -.171E-01 0.137E+00
   -.331E+03 0.173E+03 -.127E+04   0.330E+03 -.171E+03 0.127E+04   0.154E+01 -.134E+01 0.292E+01   0.308E-02 -.140E-01 0.684E-02
   0.954E+02 -.881E+01 0.184E+04   -.950E+02 0.769E+01 -.184E+04   -.541E+00 0.595E+00 -.433E+01   0.537E-01 0.328E-02 0.740E-01
   0.129E+03 0.138E+02 -.920E+01   -.130E+03 -.137E+02 0.103E+02   0.617E+00 -.117E+00 -.119E+01   0.212E-01 -.855E-02 0.129E+00
   -.585E+02 0.142E+03 0.191E+04   0.593E+02 -.141E+03 -.190E+04   -.532E+00 -.395E+00 -.268E+01   0.641E-01 -.952E-02 0.807E-01
   0.489E+02 0.839E+02 -.236E+02   -.485E+02 -.845E+02 0.240E+02   -.431E+00 0.671E+00 -.615E+00   0.193E-01 -.382E-02 0.126E+00
   -.402E+03 -.256E+02 0.100E+04   0.403E+03 0.242E+02 -.100E+04   -.816E+00 0.171E+01 -.176E+01   0.109E-01 0.147E-01 0.145E+00
   -.217E+03 -.192E+02 -.110E+04   0.218E+03 0.198E+02 0.110E+04   -.106E+01 -.600E+00 0.458E+00   0.370E-02 0.538E-02 0.113E-02
   0.293E+03 -.119E+03 0.175E+04   -.293E+03 0.119E+03 -.174E+04   0.246E+00 -.344E+00 -.425E+01   0.507E-01 -.425E-01 0.862E-01
   0.370E+03 -.130E+03 -.217E+02   -.370E+03 0.130E+03 0.220E+02   0.246E+00 -.147E-01 -.410E+00   0.279E-01 -.357E-02 0.142E+00
   -.203E+02 0.107E+01 0.301E+03   0.197E+02 -.106E+01 -.302E+03   0.570E+00 0.130E-01 -.272E+00   0.132E-01 0.495E-03 0.584E-01
   -.255E+02 -.188E+02 -.495E+03   0.251E+02 0.185E+02 0.494E+03   0.389E+00 0.345E+00 0.118E+01   0.103E-02 -.300E-02 0.308E-02
   0.177E+03 -.901E+01 0.287E+03   -.176E+03 0.891E+01 -.288E+03   -.144E+01 0.618E+00 0.510E+00   0.155E-02 -.291E-02 0.710E-01
   0.189E+03 -.288E+02 -.451E+03   -.187E+03 0.302E+02 0.448E+03   -.134E+01 -.139E+01 0.258E+01   0.100E-02 -.253E-02 0.141E-01
   0.141E+03 -.491E+02 0.318E+02   -.140E+03 0.494E+02 -.321E+02   -.441E+00 -.269E+00 0.274E+00   0.841E-03 0.527E-02 0.463E-01
   0.117E+03 -.557E+02 0.533E+03   -.115E+03 0.557E+02 -.530E+03   -.887E+00 -.255E+00 -.264E+01   -.344E-02 -.271E-02 0.185E-01
   -.123E+03 0.675E+02 -.129E+02   0.123E+03 -.666E+02 0.126E+02   0.122E+00 -.943E+00 0.358E+00   0.301E-02 0.269E-02 0.373E-01
   -.100E+03 0.601E+02 0.584E+03   0.995E+02 -.596E+02 -.580E+03   0.407E+00 -.536E+00 -.285E+01   0.756E-02 0.405E-03 0.249E-01
   0.702E+02 -.210E+02 0.259E+03   -.711E+02 0.204E+02 -.259E+03   0.960E+00 0.934E+00 -.586E+00   0.144E-01 -.113E-02 0.510E-01
   0.307E+02 -.675E+02 -.391E+03   -.311E+02 0.657E+02 0.390E+03   0.345E+00 0.186E+01 0.137E+01   0.576E-02 -.149E-02 0.972E-02
   -.826E+02 -.368E+02 -.327E+03   0.823E+02 0.366E+02 0.325E+03   0.293E+00 0.191E+00 0.229E+01   0.162E-02 0.273E-02 0.312E-02
   -.159E+03 0.685E+01 0.276E+03   0.159E+03 -.680E+01 -.276E+03   0.300E+00 -.196E+00 -.878E-01   -.685E-02 0.806E-03 0.401E-01
   -.150E+03 -.493E+01 0.544E+03   0.149E+03 0.486E+01 -.541E+03   0.715E+00 -.530E-02 -.253E+01   -.100E-01 -.107E-01 0.270E-01
   -.196E+03 -.154E+02 -.374E+02   0.195E+03 0.153E+02 0.376E+02   0.104E+01 0.239E-01 -.247E+00   -.185E-02 0.385E-03 0.334E-01
   0.799E+02 0.840E+01 0.266E+03   -.802E+02 -.807E+01 -.266E+03   -.959E-04 -.814E-01 -.273E+00   0.167E-01 0.473E-03 0.477E-01
   0.335E+02 0.629E+02 -.442E+03   -.319E+02 -.612E+02 0.440E+03   -.159E+01 -.174E+01 0.239E+01   0.178E-02 0.440E-02 0.722E-02
   0.666E+02 0.536E+01 -.168E+01   -.670E+02 -.492E+01 0.366E+00   0.424E+00 -.444E+00 0.127E+01   0.935E-02 0.236E-02 0.422E-01
   0.335E+02 -.103E+01 0.564E+03   -.342E+02 0.100E+01 -.561E+03   0.607E+00 -.200E-02 -.240E+01   0.306E-01 0.337E-04 0.225E-01
   0.128E+03 0.121E+02 0.258E+03   -.127E+03 -.125E+02 -.259E+03   -.926E+00 0.575E+00 -.384E+00   0.120E-01 0.249E-02 0.512E-01
   0.920E+02 0.196E+02 -.395E+03   -.902E+02 -.184E+02 0.394E+03   -.185E+01 -.124E+01 0.144E+01   0.487E-02 -.558E-02 0.135E-01
   0.129E+03 0.102E+02 0.281E+03   -.129E+03 -.101E+02 -.280E+03   0.781E-01 -.361E+00 -.677E+00   -.317E-02 0.640E-03 0.550E-01
   0.807E+02 0.133E+02 -.343E+03   -.820E+02 -.144E+02 0.341E+03   0.127E+01 0.110E+01 0.216E+01   -.196E-02 -.835E-04 0.761E-02
   0.127E+03 0.394E+02 0.496E+03   -.127E+03 -.392E+02 -.493E+03   0.185E+00 -.422E+00 -.267E+01   -.148E-02 0.996E-03 0.240E-01
   0.150E+03 0.349E+02 0.280E+02   -.150E+03 -.340E+02 -.283E+02   -.215E+00 -.939E+00 0.279E+00   -.240E-02 -.408E-02 0.436E-01
   -.981E+02 -.175E+01 0.550E+03   0.983E+02 0.171E+01 -.547E+03   -.429E+00 0.382E-01 -.306E+01   -.115E-01 0.939E-02 0.246E-01
   -.144E+03 0.544E+01 -.191E+02   0.144E+03 -.548E+01 0.195E+02   0.302E+00 0.410E-01 -.370E+00   -.325E-02 -.150E-02 0.309E-01
   0.129E+03 0.294E+02 0.521E+03   -.129E+03 -.297E+02 -.519E+03   -.259E+00 0.374E+00 -.254E+01   0.137E-01 0.972E-02 0.249E-01
   0.144E+03 0.288E+02 0.129E+02   -.143E+03 -.289E+02 -.135E+02   -.738E+00 0.109E+00 0.578E+00   0.482E-02 -.141E-03 0.442E-01
   0.923E+02 -.978E+01 -.341E+03   -.924E+02 0.866E+01 0.339E+03   0.128E+00 0.110E+01 0.208E+01   0.278E-02 0.511E-02 0.133E-01
   0.119E+03 -.645E+01 0.296E+03   -.120E+03 0.613E+01 -.296E+03   0.637E+00 0.395E+00 -.195E+00   0.113E-01 -.153E-02 0.605E-01
   0.422E+02 0.250E+01 0.236E+03   -.420E+02 -.245E+01 -.236E+03   -.358E+00 -.382E-01 -.654E-01   -.109E-01 0.630E-03 0.510E-01
   0.264E+02 0.515E+01 -.329E+03   -.277E+02 -.427E+01 0.327E+03   0.131E+01 -.867E+00 0.210E+01   -.339E-02 -.510E-02 0.641E-02
   -.400E+02 -.170E+00 0.504E+03   0.402E+02 0.501E+00 -.501E+03   -.389E-01 -.246E+00 -.284E+01   -.142E-01 -.164E-02 0.219E-01
   -.602E+02 -.449E+01 -.143E+01   0.602E+02 0.450E+01 0.157E+01   0.400E-01 -.756E-02 -.179E+00   -.945E-02 -.110E-02 0.370E-01
   0.530E+02 -.327E+01 0.486E+03   -.529E+02 0.263E+01 -.483E+03   -.165E-01 0.221E+00 -.311E+01   -.181E-01 -.200E-02 0.251E-01
   0.539E+02 -.307E+01 -.314E+02   -.537E+02 0.240E+01 0.319E+02   -.221E+00 0.669E+00 -.520E+00   -.913E-02 -.295E-02 0.375E-01
   -.675E+02 -.306E+01 0.263E+03   0.676E+02 0.315E+01 -.263E+03   0.861E-01 0.204E+00 0.101E+00   -.168E-01 -.459E-02 0.478E-01
   -.113E+02 -.648E+02 -.315E+03   0.124E+02 0.634E+02 0.313E+03   -.108E+01 0.138E+01 0.197E+01   -.259E-02 0.897E-03 0.500E-02
   0.416E+02 0.134E+01 0.500E+03   -.409E+02 -.121E+01 -.496E+03   -.806E+00 -.306E+00 -.328E+01   -.191E-01 0.337E-02 0.209E-01
   0.455E+02 -.290E+01 0.235E+01   -.451E+02 0.314E+01 -.187E+01   -.440E+00 -.241E+00 -.524E+00   -.594E-02 0.375E-02 0.440E-01
   -.933E+02 0.306E+00 0.238E+03   0.929E+02 -.407E+00 -.239E+03   0.580E+00 0.153E+00 -.422E-01   -.149E-01 0.461E-02 0.491E-01
   -.124E+03 0.149E+02 -.380E+03   0.123E+03 -.157E+02 0.378E+03   0.158E+01 0.768E+00 0.173E+01   -.284E-02 0.180E-02 -.161E-02
   0.216E+02 0.331E+02 -.322E+03   -.210E+02 -.319E+02 0.321E+03   -.584E+00 -.114E+01 0.127E+01   -.291E-02 0.415E-02 0.692E-02
   0.544E+02 -.535E+01 0.270E+03   -.537E+02 0.528E+01 -.271E+03   -.705E+00 0.259E+00 -.978E-02   -.169E-01 -.130E-03 0.567E-01
[...]
   -.159E+03 0.594E+01 0.266E+03   0.158E+03 -.613E+01 -.267E+03   0.916E+00 0.386E+00 0.126E+00   -.842E-02 -.789E-03 0.474E-01
   -.141E+03 0.124E+02 -.347E+03   0.141E+03 -.126E+02 0.345E+03   0.489E+00 0.182E+00 0.185E+01   0.272E-02 -.159E-02 -.803E-03
   0.153E+03 0.699E+02 -.585E+03   -.153E+03 -.688E+02 0.590E+03   -.114E+00 -.101E+01 -.478E+01   0.683E-02 0.471E-02 0.180E-01
   -.979E+02 0.389E+02 -.798E+03   0.985E+02 -.431E+02 0.812E+03   -.565E+00 0.420E+01 -.147E+02   -.217E-02 -.997E-03 -.193E-01
   0.192E+03 0.192E+02 -.581E+03   -.193E+03 -.217E+02 0.586E+03   0.103E+01 0.249E+01 -.496E+01   -.619E-02 -.148E-01 0.112E-01
   -.856E+02 -.173E+02 -.689E+03   0.852E+02 0.191E+02 0.698E+03   0.417E+00 -.184E+01 -.922E+01   -.178E-01 0.391E-02 -.129E-01
   0.998E+02 -.328E+02 -.819E+03   -.100E+03 0.354E+02 0.837E+03   0.281E+00 -.262E+01 -.187E+02   0.297E-02 0.658E-02 -.107E-01
   0.908E+02 -.375E+02 -.918E+03   -.858E+02 0.365E+02 0.937E+03   -.497E+01 0.100E+01 -.187E+02   0.428E-02 -.736E-02 -.127E-01
   -.151E+03 -.436E+02 -.993E+03   0.153E+03 0.426E+02 0.101E+04   -.233E+01 0.947E+00 -.202E+02   -.821E-02 0.220E-02 -.246E-01
   0.627E+02 0.498E+02 -.974E+03   -.665E+02 -.514E+02 0.995E+03   0.382E+01 0.156E+01 -.203E+02   -.312E-01 -.220E-01 -.755E-03
   0.268E+02 -.260E+02 -.821E+03   -.284E+02 0.266E+02 0.839E+03   0.156E+01 -.601E+00 -.180E+02   0.233E-02 0.103E-01 -.208E-01
   0.880E+02 -.123E+02 -.944E+03   -.924E+02 0.152E+02 0.962E+03   0.437E+01 -.287E+01 -.178E+02   -.119E-01 0.507E-02 -.565E-02
   0.541E+02 0.289E+01 -.737E+03   -.557E+02 -.582E+01 0.747E+03   0.158E+01 0.292E+01 -.986E+01   0.157E-02 0.650E-02 -.687E-04
   -.153E+03 -.880E+02 -.978E+03   0.152E+03 0.919E+02 0.997E+03   0.983E+00 -.394E+01 -.196E+02   0.372E-02 0.144E-01 -.228E-01
   -.429E+01 0.263E+01 0.194E+03   -.256E-12 -.142E-13 0.512E-11   0.409E+01 -.258E+01 -.197E+03   0.194E+00 -.508E-01 0.242E+01

 POSITION                                       TOTAL-FORCE (eV/Angst)
      8.57631      8.29685     10.39845        -0.070980     -0.173481      0.017992
      8.52951      3.84272     15.09661         0.001044     -0.000344      0.000806
      8.70282      5.98024     16.96509        -0.002336     -0.000710      0.003210
      8.51616      0.79995     12.43874        -0.046926     -0.031906      0.064272
     13.41941      6.12661     15.26926         0.002042     -0.000607     -0.000119
     13.49094      1.15316     10.44749        -0.017586     -0.390052     -0.031201
     10.03344      3.28428     12.67411        -0.050814      0.401228     -0.416188
     10.01621      8.37154     17.28633         0.008137     -0.001629     -0.002179
      7.12524      5.81577     10.15765        -0.138698     -0.513585      0.924880
      7.01959      1.33218     15.08763         0.001623      0.000261     -0.001200
      8.51222      3.28036     10.20450         0.268956      0.059728      0.837216
      8.45771      8.29536     14.99261         0.002188     -0.000989     -0.001308
     10.22263      8.06723     12.77991         0.264752      0.332618     -0.326042
     10.05959      3.72084     17.56388        -0.000152     -0.002002     -0.007244
      5.42664      8.10481     10.20639         0.312105      0.091855      0.858229
      5.33639      3.55704     15.10040        -0.002148      0.000889      0.001158
      8.52843      5.75423     12.65640         0.008215      0.021468     -0.422483
      8.53212      1.05099     17.57524         0.003607      0.002059     -0.001887
      3.84829      7.97317     12.47259        -0.529752      0.510460     -0.503782
      3.79865      3.34257     17.47155         0.000092     -0.001190      0.001284
      3.80973      5.68638     14.68748         0.001871      0.001247     -0.000400
      3.90063      0.73891     10.00000         0.428455     -0.207161      0.382002
     10.25413      6.09791     14.83678        -0.000893      0.000379      0.000774
     10.19112      1.10470     10.13736        -0.228436      0.014706      0.301108
      6.82945      7.99424     12.66670         0.098428      0.291140     -0.411711
      6.85972      3.71388     17.43594         0.003942      0.001114      0.000288
     11.50281      6.22111     17.44224        -0.003334      0.000883     -0.000901
     11.66772      1.05372     12.57547        -0.353616     -0.143522     -0.423152
     11.73919      3.33868     10.41199        -0.268895     -0.081465      0.609306
     11.72006      8.38196     15.25974         0.002248     -0.001352      0.000556
      7.18522      3.24644     12.75390        -0.247564      0.242936     -0.385677
      7.13464      8.06251     17.48707         0.002065     -0.002337     -0.000474
      6.81115      6.01820     14.82309        -0.000139     -0.000755      0.001010
      6.87795      0.97560     10.08695        -0.064579     -0.032818      0.261278
      5.51084      5.55012     12.48419        -0.115388      0.240969     -0.651129
      5.50961      0.92359     17.51307        -0.000482      0.000022     -0.002105
      3.51249      3.50019     12.83519        -0.023374     -0.238606     -0.232641
      3.06292      8.69463     17.54951         0.003870      0.000180      0.002502
      3.46798      5.87237     10.40868         0.086787     -0.216939     -0.054110
      3.45676      1.33326     15.14982         0.001164      0.001092      0.001272
     11.91771      8.21633     10.24534        -0.224033      0.010366      0.728272
     11.93263      3.59189     15.15472         0.000585      0.002062      0.000258
      5.24135      3.36543     10.32679         0.137727      0.067791      0.119650
      5.17737      8.41582     15.09234         0.000051      0.001363     -0.000397
      4.87953      6.19356     17.29154         0.004171     -0.002253      0.004063
      5.28930      0.99064     12.60849         0.251789      0.076355     -0.338639
      1.60538      5.84491     12.85122        -0.204641      0.015608     -0.630179
      1.31410      1.64812     17.52583         0.002719      0.000519      0.000336
     13.72038      5.67134     10.18293         0.182948      0.083606      0.613841
     13.68536      1.04996     14.97012        -0.000039      0.000393      0.000132
      1.63456      8.33987     10.36453         0.048110     -0.415192      0.142740
      1.55982      3.79196     15.30888         0.002109     -0.001222      0.000475
     13.76831      3.16119     12.53308         0.163473      0.286540     -0.204023
      0.00536      8.29024     17.49455         0.000665      0.001046      0.001393
      1.99440      3.17314     10.17666        -0.121443     -0.176779      0.604582
      1.89161      7.99103     15.08224        -0.000080      0.001873     -0.002040
     13.48051      8.37930     12.86886         0.202930      0.056405     -0.434168
     13.16987      4.08525     17.98004         0.000392     -0.000257     -0.000280
      1.79786      5.94309     17.64971         0.000603     -0.000966      0.001058
      2.02729      0.87737     12.46815         0.001307      0.192017     -0.462691
     10.07171      5.79402     10.14663         0.157562     -0.571459      0.161216
     10.01819      1.27169     14.99551         0.002754      0.000583     -0.002616
     11.97051      5.66181     12.67660         0.025794      0.195856     -0.717897
     11.79143      1.28638     17.65192         0.001003     -0.000536      0.002158
      5.08563      8.38297     17.41372         0.000536     -0.000254      0.001010
     13.44675      2.17079     18.70665         0.001891     -0.001597      0.003622
      3.46564      1.19132     17.50940         0.002989      0.000060      0.001590
     13.43219      6.26382     18.17951         0.002683     -0.000197      0.002427
      3.56207      5.05305     18.46435         0.000784     -0.000433      0.000859
      5.47183      2.71375     18.43795         0.000852      0.002037      0.004079
     10.20394      0.37529     18.62547         0.003928     -0.001380      0.002088
      7.01374      0.20191     18.55071         0.007426      0.004032      0.000934
      1.77853      7.87910     18.67999         0.000440     -0.001271      0.000305
      8.42675      2.90755     18.42347         0.003068     -0.000146      0.000152
      6.96509      5.94294     17.73465         0.000755      0.002509      0.000432
     11.27661      4.69569     18.74156         0.002694     -0.000862      0.002045
    total drift:                               -0.002377     -0.004646     -0.031959

  FREE ENERGIE OF THE ION-ELECTRON SYSTEM (eV)
  free  energy   TOTEN  =      -627.44374377 eV

  energy  without entropy=     -627.44022961  energy(sigma->0) =     -627.44286523

 d Force = 0.2033940E-04[ 0.119E-04, 0.288E-04]  d Energy = 0.4283811E-05 0.161E-04
 d Force = 0.5443394E+00[ 0.544E+00, 0.544E+00]  d Ewald  = 0.5443392E+00 0.227E-06

 Conjugate gradient step on ions:
 trial-energy change:   -0.000004  1 .order   -0.000020   -0.000029   -0.000012
  (g-gl).g = 0.773E-05      g.g   = 0.121E-04  gl.gl    = 0.248E-04
 g(Force)  = 0.121E-04   g(Stress)= 0.000E+00 ortho     =-0.111E-05
 gamma     =   0.31145
 trial     =   2.43947
 opt step  =   4.16469  (harmonic =   4.16469) maximal distance =0.00072678
 next E    =  -627.443764   (d E  =  -0.00002)

 reached required accuracy - stopping structural energy minimisation