 vasp.5.4.1 05Feb16 (build Mar 19 2020 08:54:17) complex

 executed on           IFC91_ompi date 2021.10.23  14:16:24

 INCAR:
 POTCAR:    PAW_PBE Al 04Jan2001
 POTCAR:    PAW_PBE Nb_sv 25May2007
 POTCAR:    PAW_PBE Ta 17Jan2003
 POTCAR:    PAW_PBE Ti 08Apr2002
 POTCAR:   PAW_PBE Zr 08Apr2002
 POTCAR:    PAW_PBE O 08Apr2002

 POTCAR:    PAW_PBE Al 04Jan2001
   VRHFIN =Al: s2p1

   TITEL  = PAW_PBE Al 04Jan2001
   POMASS =   26.981; ZVAL   =    3.000    mass and valenz
   ENMAX  =  240.300; ENMIN  =  180.225 eV

 POTCAR:    PAW_PBE Nb_sv 25May2007
   VRHFIN =Nb: 4p5s4d

   TITEL  = PAW_PBE Nb_sv 25May2007
   POMASS =   92.910; ZVAL   =   13.000    mass and valenz
   ENMAX  =  293.235; ENMIN  =  219.927 eV

 POTCAR:    PAW_PBE Ta 17Jan2003
   VRHFIN =Ta:  6s5d

   TITEL  = PAW_PBE Ta 17Jan2003
   POMASS =  180.948; ZVAL   =    5.000    mass and valenz
   ENMAX  =  223.667; ENMIN  =  167.750 eV

 POTCAR:    PAW_PBE Ti 08Apr2002
   VRHFIN =Ti: d3 s1

   TITEL  = PAW_PBE Ti 08Apr2002
   POMASS =   47.880; ZVAL   =    4.000    mass and valenz
   ENMAX  =  178.330; ENMIN  =  133.747 eV

 POTCAR:   PAW_PBE Zr 08Apr2002
   VRHFIN =Zr: 5s4d5p

   TITEL  = PAW_PBE Zr 08Apr2002
   POMASS =   91.224; ZVAL   =    4.000    mass and valenz
   ENMAX  =  154.632; ENMIN  =  115.974 eV
   QCUT   =   -3.371; QGAM   =    6.742    optimization parameters

   Description
     l     E      TYP  RCUT    TYP  RCUT
     2   .000     23  3.000
     2   .000     23  3.000
     0   .000     23  3.000
     0  2.000     23  3.000
     1  -.400     23  3.000
     3   .000      7   .000

 POTCAR:    PAW_PBE O 08Apr2002
   VRHFIN =O: s2p4

   TITEL  = PAW_PBE O 08Apr2002
   POMASS =   16.000; ZVAL   =    6.000    mass and valenz
   ENMAX  =  400.000; ENMIN  =  300.000 eV

 WARNING: PSMAXN for non-local potential too small
          PSMAXN should be >   12.5490833729506       NTYP=           5
  PAW_PBE Al 04Jan2001                  :
  PAW_PBE Nb_sv 25May2007               :
  PAW_PBE Ta 17Jan2003                  :
  PAW_PBE Ti 08Apr2002                  :
 PAW_PBE Zr 08Apr2002                   :
  PAW_PBE O 08Apr2002                   :

 POSCAR: Al Nb Ta Ti Zr
  positions in direct lattice
  velocities in cartesian coordinates
 exchange correlation table for  LEXCH =        8
   RHO(1)=    0.500       N(1)  =     2000
   RHO(2)=  100.500       N(2)  =     4000

 ion  position               nearest neighbor table
   1  0.623  0.867  0.376-  34 2.83  25 2.88  24 2.88   9 2.88  13 2.90   4 2.91  61 2.93  15 3.16
                            41 3.35  17 3.40
   2  0.624  0.390  0.547-  14 2.79  31 2.81  26 2.81  23 2.82  33 2.85  10 2.88   7 2.89  62 3.00
                             3 3.11  18 3.18  17 3.20  42 3.32
   3  0.615  0.628  0.624-  32 2.70  14 2.79   8 2.83  26 2.84  23 2.88  33 2.89  27 3.08   2 3.11
                            45 3.20
   4  0.618  0.084  0.450-  31 2.80  24 2.86  34 2.87  13 2.88   1 2.91  25 2.92   7 2.92  10 2.97
                            62 2.97  28 3.16  12 3.17  46 3.24
   5  0.982  0.640  0.551-  30 2.79  27 2.87  56 2.93  42 2.95  52 3.00  63 3.05  47 3.05  54 3.12
                            59 3.18  58 3.26  57 3.28
   6  0.980  0.121  0.378-  29 2.80  28 2.80  53 2.91  41 2.96  51 3.05  55 3.05  60 3.08  57 3.37

   7  0.729  0.343  0.458-  28 2.77  29 2.83  31 2.85  17 2.89   2 2.89  11 2.90   4 2.92  62 3.04
                            63 3.07  42 3.08
   8  0.724  0.879  0.623-  71 2.03  30 2.64  32 2.67  27 2.71  12 2.78   3 2.83  18 2.89  64 3.17
                            62 3.33
   9  0.517  0.608  0.367-  35 2.84  15 2.85  17 2.87   1 2.88  11 2.89  61 2.95  43 3.10
  10  0.513  0.135  0.542-  16 2.81  18 2.85   2 2.88  12 2.91  36 2.92  31 2.97   4 2.97  46 2.98
                            62 3.10  44 3.12
  11  0.618  0.343  0.369-  24 2.75  34 2.83  31 2.87   9 2.89   7 2.90  61 2.96  43 3.27
  12  0.617  0.871  0.538-  13 2.73  32 2.78   8 2.78  25 2.79  23 2.80  33 2.90  10 2.91  62 2.95
                             4 3.17  44 3.30
  13  0.742  0.843  0.462-  12 2.73  17 2.87   4 2.88   1 2.90  23 2.93  28 2.94  30 2.96  63 2.98
                            41 3.05  57 3.27  62 3.42
  14  0.746  0.407  0.628-  27 2.64   3 2.79   2 2.79  42 2.81  18 2.94  64 3.02  58 3.05
  15  0.394  0.847  0.369-  22 2.68  19 2.76  25 2.83  34 2.84   9 2.85  39 2.98   1 3.16  46 3.43

  16  0.390  0.370  0.546-  21 2.65  26 2.77  20 2.80  10 2.81  33 2.84  40 2.92  37 2.93  31 2.98
                            45 3.47
  17  0.619  0.602  0.458-  33 2.80  23 2.81  25 2.81  31 2.85   9 2.87  13 2.87   7 2.89  61 2.95
                            35 3.03   2 3.20   1 3.40  63 3.44
  18  0.630  0.149  0.626-  72 2.04  71 2.14  26 2.84  10 2.85  62 2.87   8 2.89  32 2.89  14 2.94
                            36 3.11   2 3.18  64 3.20
  19  0.279  0.834  0.451-  15 2.76  35 2.94  46 2.96  39 2.97  44 2.99  25 2.99  60 3.07  51 3.08
                            47 3.12  56 3.22  21 3.29
  20  0.282  0.355  0.631-  69 2.01  70 2.04  67 2.21  16 2.80  36 2.94  48 3.02  26 3.04  40 3.11
                            45 3.12  52 3.12  59 3.23
  21  0.278  0.593  0.536-  16 2.65  35 2.88  45 2.95  37 2.96  52 2.96  47 2.98  33 3.02  44 3.03
                            56 3.11  19 3.29  59 3.36
  22  0.283  0.077  0.361-  15 2.68  46 2.97  43 2.97  34 2.99  51 3.02  55 3.10  60 3.10
  23  0.737  0.635  0.539-  30 2.76  27 2.78  12 2.80  17 2.81   2 2.82   3 2.88  63 2.92  13 2.93
                            42 2.98
  24  0.740  0.115  0.366-  29 2.73  11 2.75  28 2.85   4 2.86   1 2.88  41 3.00
  25  0.496  0.836  0.458-  35 2.78  12 2.79  17 2.81  15 2.83   1 2.88   4 2.92  44 2.96  19 2.99
                            46 2.99  33 3.00
  26  0.502  0.381  0.629-  70 1.93  16 2.77   2 2.81  18 2.84   3 2.84  36 2.94  45 3.02  20 3.04

  27  0.838  0.649  0.627-  68 2.10  14 2.64   8 2.71  58 2.77  23 2.78   5 2.87  30 2.92   3 3.08
                            54 3.10  42 3.40
  28  0.847  0.110  0.455-  62 2.76   7 2.77   6 2.80  24 2.85  57 2.90  13 2.94  53 2.98  29 3.15
                             4 3.16  50 3.18  41 3.36
  29  0.852  0.349  0.376-  24 2.73   6 2.80   7 2.83  53 2.94  61 2.98  49 3.07  28 3.15  63 3.25

  30  0.854  0.866  0.553-   8 2.64  23 2.76   5 2.79  27 2.92  13 2.96  62 2.98  57 2.98  54 3.04
                            50 3.07
  31  0.522  0.339  0.461-   4 2.80   2 2.81  17 2.85   7 2.85  35 2.86  11 2.87  46 2.95  10 2.97
                            16 2.98  43 3.11
  32  0.530  0.883  0.628-  72 1.96  65 2.06   8 2.67   3 2.70  36 2.73  12 2.78  18 2.89  45 3.05
                            44 3.10
  33  0.496  0.623  0.538-  35 2.76  17 2.80  16 2.84   2 2.85   3 2.89  12 2.90  44 2.91  45 2.93
                            25 3.00  21 3.02
  34  0.499  0.102  0.365-  11 2.83   1 2.83  15 2.84   4 2.87  43 2.91  46 2.98  22 2.99
  35  0.400  0.580  0.451-  33 2.76  25 2.78   9 2.84  31 2.86  21 2.88  37 2.88  39 2.93  19 2.94
                            17 3.03  43 3.08
  36  0.407  0.106  0.633-  72 1.98  70 2.04  67 2.06  65 2.16  32 2.73  10 2.92  20 2.94  26 2.94
                            38 3.03  18 3.11  40 3.17  44 3.28
  37  0.255  0.366  0.464-  35 2.88  16 2.93  21 2.96  47 3.02  60 3.04  43 3.05  55 3.08  46 3.08
                            52 3.15  40 3.19  39 3.39
  38  0.233  0.911  0.633-  73 1.91  65 2.05  67 2.09  56 2.87  36 3.03  59 3.04  48 3.10  44 3.14
                            54 3.16  40 3.21  45 3.28
  39  0.252  0.614  0.376-  35 2.93  19 2.97  15 2.98  47 3.07  43 3.07  51 3.07  55 3.08  37 3.39
                            49 3.53
  40  0.251  0.139  0.548-  67 2.38  16 2.92  52 3.06  44 3.07  60 3.09  20 3.11  46 3.17  36 3.17
                            37 3.19  48 3.19  56 3.21  38 3.21  50 3.55
  41  0.865  0.859  0.370-   6 2.96  24 3.00  61 3.05  13 3.05  57 3.06  49 3.12   1 3.35  28 3.36
                            51 3.49  63 3.53
  42  0.865  0.383  0.546-  14 2.81   5 2.95  23 2.98  62 3.03  58 3.07   7 3.08  63 3.14  50 3.14
                            53 3.21   2 3.32  27 3.40  52 3.49  64 3.51
  43  0.381  0.352  0.373-  34 2.91  22 2.97  37 3.05  39 3.07  35 3.08   9 3.10  31 3.11  55 3.26
                            11 3.27  46 3.29
  44  0.378  0.874  0.546-  65 2.34  33 2.91  25 2.96  19 2.99  21 3.03  40 3.07  32 3.10  10 3.12
                            45 3.13  38 3.14  36 3.28  12 3.30  56 3.31  46 3.33
  45  0.383  0.646  0.627-  69 2.13  65 2.27  33 2.93  21 2.95  26 3.02  32 3.05  20 3.12  44 3.13
                             3 3.20  38 3.28  59 3.36  16 3.47
  46  0.384  0.104  0.456-  31 2.95  19 2.96  22 2.97  10 2.98  34 2.98  25 2.99  37 3.08  40 3.17
                             4 3.24  60 3.27  43 3.29  44 3.33  15 3.43
  47  0.117  0.611  0.465-  21 2.98  37 3.02   5 3.05  39 3.07  19 3.12  53 3.14  49 3.15  56 3.15
                            57 3.17  52 3.24  63 3.42  51 3.52  55 3.80
  48  0.102  0.174  0.636-  66 2.08  67 2.20  50 3.01  20 3.02  52 3.09  58 3.10  38 3.10  40 3.19
                            54 3.24  64 3.34
  49  0.996  0.593  0.368-  63 3.05  29 3.07  41 3.12  47 3.15  51 3.16  55 3.23  53 3.44  39 3.53
                            61 3.65  57 3.82
  50  0.995  0.113  0.543-  48 3.01  30 3.07  57 3.14  42 3.14  28 3.18  52 3.19  56 3.23  53 3.24
                            64 3.28  60 3.32  54 3.44  62 3.54  40 3.55
  51  0.119  0.872  0.375-  60 3.00  22 3.02   6 3.05  39 3.07  19 3.08  57 3.16  49 3.16  41 3.49
                            47 3.52
  52  0.117  0.394  0.554-  21 2.96   5 3.00  40 3.06  48 3.09  20 3.12  59 3.15  37 3.15  50 3.19
                            47 3.24  58 3.26  53 3.29  42 3.49
  53  1.000  0.331  0.453-   6 2.91  29 2.94  28 2.98  60 3.06  63 3.08  55 3.09  47 3.14  42 3.21
                            50 3.24  52 3.29  49 3.44
  54  0.006  0.865  0.633-  73 2.18  68 2.19  59 2.96  30 3.04  56 3.07  27 3.10   5 3.12  38 3.16
                            48 3.24  64 3.32  50 3.44
  55  0.145  0.332  0.368-   6 3.05  37 3.08  39 3.08  53 3.09  22 3.10  49 3.23  60 3.24  43 3.26
                            47 3.80
  56  0.138  0.847  0.544-  38 2.87   5 2.93  54 3.07  57 3.10  21 3.11  47 3.15  40 3.21  19 3.22
                            50 3.23  44 3.31  59 3.32  60 3.48
  57  0.979  0.876  0.465-  28 2.90  30 2.98  41 3.06  56 3.10  63 3.11  60 3.13  50 3.14  51 3.16
                            47 3.17  13 3.27   5 3.28   6 3.37  49 3.82
  58  0.964  0.429  0.644-  66 2.09  68 2.16  27 2.77  14 3.05  59 3.06  42 3.07  48 3.10  64 3.11
                             5 3.26  52 3.26
  59  0.140  0.623  0.635-  69 2.13  73 2.18  68 2.33  54 2.96  38 3.04  58 3.06  52 3.15   5 3.18
                            20 3.23  56 3.32  45 3.36  21 3.36
  60  0.147  0.092  0.451-  51 3.00  37 3.04  53 3.06  19 3.07   6 3.08  40 3.09  22 3.10  57 3.13
                            55 3.24  46 3.27  50 3.32  56 3.48
  61  0.731  0.606  0.367-   1 2.93  17 2.95   9 2.95  11 2.96  29 2.98  41 3.05  63 3.17  49 3.65

  62  0.738  0.125  0.538-  28 2.76  18 2.87  12 2.95   4 2.97  30 2.98   2 3.00  42 3.03   7 3.04
[...]
     0.000000000  9.564481735  0.000000000     0.000000000  0.104553496  0.000000000
     0.000000000  0.000000000 27.662570434     0.000000000  0.000000000  0.036149931

  length of vectors
    13.771350861  9.564481735 27.662570434     0.072614518  0.104553496  0.036149931

 FORCES acting on ions
    electron-ion (+dipol)            ewald-force                    non-local-force                 convergence-correction
   -.478E+02 -.340E+02 0.415E+03   0.477E+02 0.338E+02 -.414E+03   0.772E-01 0.937E-01 -.788E+00   0.154E-01 0.229E-01 -.127E-01
   -.249E+02 -.383E+02 -.791E+02   0.251E+02 0.380E+02 0.791E+02   -.176E+00 0.288E+00 0.248E-01   -.976E-03 -.657E-03 -.166E-01
   0.281E+02 0.295E+02 -.337E+03   -.277E+02 -.292E+02 0.336E+03   -.399E+00 -.368E+00 0.912E+00   -.382E-02 -.351E-03 -.546E-02
   -.897E-01 0.462E+01 0.240E+03   0.744E-01 -.446E+01 -.240E+03   -.476E-01 -.256E+00 -.645E+00   0.152E-01 0.595E-02 -.404E-01
   -.511E+02 0.805E+01 -.323E+02   0.510E+02 -.775E+01 0.319E+02   0.956E-01 -.292E+00 0.348E+00   -.463E-02 -.123E-02 -.359E-02
   -.450E+02 0.460E+01 0.358E+03   0.443E+02 -.399E+01 -.356E+03   0.651E+00 -.102E+01 -.225E+01   -.386E-01 0.217E-02 -.151E-01
   -.376E+03 -.661E+01 0.648E+03   0.376E+03 0.745E+01 -.649E+03   0.174E+00 -.316E+00 0.928E+00   -.331E-01 -.561E-01 -.159E+00
   -.284E+03 0.234E+03 -.135E+04   0.283E+03 -.232E+03 0.135E+04   0.972E+00 -.141E+01 0.310E+01   -.343E-01 0.932E-02 -.215E-01
   0.964E+02 -.733E+01 0.177E+04   -.961E+02 0.629E+01 -.177E+04   -.519E+00 0.601E+00 -.433E+01   0.624E-01 -.181E-01 -.335E-01
   0.128E+03 -.165E+02 -.104E+03   -.128E+03 0.167E+02 0.105E+03   0.243E+00 -.234E+00 -.110E+01   0.240E-01 0.747E-02 -.681E-01
   -.570E+02 0.138E+03 0.184E+04   0.578E+02 -.137E+03 -.184E+04   -.549E+00 -.413E+00 -.275E+01   0.886E-01 -.122E+00 -.496E-01
   0.640E+02 0.134E+03 -.140E+03   -.631E+02 -.135E+03 0.141E+03   -.818E+00 0.371E+00 -.499E-01   -.943E-02 0.415E-02 -.731E-01
   -.417E+03 -.254E+01 0.920E+03   0.418E+03 0.142E+01 -.919E+03   -.729E+00 0.138E+01 -.165E+01   -.394E-01 0.505E-01 -.135E+00
   -.126E+03 -.618E+02 -.136E+04   0.127E+03 0.607E+02 0.136E+04   -.103E+01 0.113E+01 0.303E+01   -.350E-01 0.745E-02 -.252E-01
   0.293E+03 -.115E+03 0.169E+04   -.293E+03 0.116E+03 -.168E+04   0.276E+00 -.357E+00 -.419E+01   0.993E-01 0.854E-02 -.413E-01
   0.317E+03 -.158E+03 -.150E+03   -.317E+03 0.158E+03 0.151E+03   0.151E+00 -.152E+00 -.598E+00   0.472E-01 0.345E-03 -.363E-01
   -.168E+02 0.479E+01 0.256E+03   0.163E+02 -.468E+01 -.257E+03   0.559E+00 -.275E+00 -.254E-01   0.224E-02 -.666E-02 -.347E-01
   -.505E+02 -.113E+03 -.509E+03   0.500E+02 0.113E+03 0.508E+03   0.442E+00 0.299E+00 0.152E+01   -.246E-02 0.974E-03 -.583E-02
   0.173E+03 -.480E+01 0.252E+03   -.172E+03 0.471E+01 -.253E+03   -.140E+01 0.571E+00 0.468E+00   0.225E-01 -.779E-03 -.166E-01
   0.166E+03 -.365E+02 -.471E+03   -.165E+03 0.380E+02 0.468E+03   -.119E+01 -.152E+01 0.269E+01   0.972E-02 -.853E-03 0.356E-02
   0.128E+03 -.526E+02 -.152E+02   -.127E+03 0.527E+02 0.149E+02   -.432E+00 -.680E-01 0.297E+00   0.140E-01 0.152E-02 -.708E-02
   0.116E+03 -.557E+02 0.515E+03   -.115E+03 0.557E+02 -.512E+03   -.805E+00 -.244E+00 -.265E+01   0.220E-01 0.163E-02 -.146E-01
   -.100E+03 0.692E+02 -.698E+02   0.100E+03 -.687E+02 0.699E+02   0.795E-01 -.522E+00 -.734E-02   -.109E-01 -.419E-02 -.222E-01
   -.100E+03 0.596E+02 0.566E+03   0.995E+02 -.591E+02 -.563E+03   0.469E+00 -.553E+00 -.282E+01   -.806E-02 0.860E-02 -.123E-01
   0.750E+02 -.125E+02 0.230E+03   -.761E+02 0.119E+02 -.230E+03   0.103E+01 0.849E+00 -.493E+00   0.190E-01 0.368E-02 -.239E-01
   -.563E+02 -.101E+03 -.446E+03   0.561E+02 0.101E+03 0.444E+03   0.161E+00 0.543E+00 0.210E+01   0.981E-03 0.264E-02 -.406E-02
   -.585E+02 0.490E+01 -.384E+03   0.583E+02 -.469E+01 0.382E+03   0.138E+00 -.205E+00 0.267E+01   -.647E-02 -.603E-02 -.295E-02
   -.161E+03 0.657E+01 0.251E+03   0.161E+03 -.637E+01 -.252E+03   0.180E+00 -.368E+00 0.297E+00   -.373E-01 0.351E-02 -.584E-01
   -.149E+03 -.556E+01 0.525E+03   0.148E+03 0.555E+01 -.522E+03   0.710E+00 -.516E-01 -.260E+01   -.455E-01 -.368E-01 -.216E-01
   -.188E+03 -.726E+01 -.780E+02   0.187E+03 0.712E+01 0.780E+02   0.878E+00 0.135E+00 -.158E-01   -.137E-01 0.284E-02 -.154E-01
   0.792E+02 0.112E-01 0.234E+03   -.794E+02 0.383E+00 -.235E+03   0.921E-01 -.947E-01 -.190E+00   0.204E-01 -.455E-02 -.309E-01
   0.384E+02 0.120E+03 -.452E+03   -.379E+02 -.120E+03 0.450E+03   -.504E+00 -.105E+00 0.192E+01   0.123E-02 -.400E-02 -.622E-02
   0.508E+02 0.312E+01 -.751E+02   -.512E+02 -.288E+01 0.747E+02   0.427E+00 -.232E+00 0.418E+00   0.913E-02 -.270E-02 -.159E-01
   0.339E+02 -.144E+01 0.546E+03   -.347E+02 0.137E+01 -.544E+03   0.631E+00 0.465E-01 -.250E+01   0.469E-01 0.721E-02 -.120E-01
   0.127E+03 0.116E+02 0.224E+03   -.126E+03 -.119E+02 -.224E+03   -.881E+00 0.591E+00 -.411E+00   0.240E-01 -.210E-02 -.185E-01
   0.688E+02 0.172E+02 -.414E+03   -.672E+02 -.157E+02 0.413E+03   -.163E+01 -.152E+01 0.156E+01   0.105E-01 -.291E-02 0.351E-02
   0.125E+03 0.660E+01 0.252E+03   -.125E+03 -.644E+01 -.251E+03   0.142E+00 -.321E+00 -.616E+00   0.171E-01 0.331E-03 -.127E-01
   0.725E+02 0.239E+02 -.350E+03   -.737E+02 -.245E+02 0.347E+03   0.122E+01 0.632E+00 0.230E+01   0.196E-02 -.187E-02 0.653E-02
   0.126E+03 0.396E+02 0.475E+03   -.126E+03 -.394E+02 -.472E+03   0.144E+00 -.439E+00 -.268E+01   0.172E-01 -.111E-02 -.153E-01
   0.143E+03 0.338E+02 -.306E+01   -.143E+03 -.331E+02 0.281E+01   -.176E+00 -.732E+00 0.263E+00   0.110E-01 0.526E-03 -.589E-02
   -.979E+02 -.116E+01 0.532E+03   0.982E+02 0.109E+01 -.528E+03   -.481E+00 0.274E-01 -.308E+01   -.397E-01 0.301E-01 -.162E-01
   -.140E+03 0.427E+01 -.486E+02   0.140E+03 -.419E+01 0.491E+02   0.455E+00 -.732E-01 -.551E+00   -.141E-01 -.271E-02 -.178E-01
   0.129E+03 0.283E+02 0.501E+03   -.128E+03 -.286E+02 -.498E+03   -.240E+00 0.358E+00 -.247E+01   0.334E-01 -.246E-02 -.139E-01
   0.133E+03 0.397E+02 -.297E+02   -.133E+03 -.396E+02 0.290E+02   -.733E+00 -.630E-01 0.692E+00   0.137E-01 -.939E-04 -.106E-01
   0.165E+01 -.194E+01 -.394E+03   -.218E+01 0.958E+00 0.391E+03   0.517E+00 0.982E+00 0.279E+01   0.797E-02 -.167E-02 -.430E-03
   0.122E+03 -.663E+01 0.270E+03   -.123E+03 0.633E+01 -.270E+03   0.466E+00 0.280E+00 -.172E+00   0.281E-01 0.166E-02 -.201E-01
   0.383E+02 0.303E+01 0.209E+03   -.381E+02 -.294E+01 -.210E+03   -.132E+00 -.994E-01 -.465E-01   -.132E-02 0.679E-03 -.121E-01
   0.343E+02 0.566E+01 -.353E+03   -.357E+02 -.460E+01 0.350E+03   0.142E+01 -.106E+01 0.233E+01   0.177E-02 0.165E-02 0.303E-02
   -.400E+02 -.611E-01 0.486E+03   0.402E+02 0.452E+00 -.482E+03   -.547E-01 -.307E+00 -.281E+01   -.248E-01 -.467E-02 -.170E-01
   -.536E+02 -.453E+01 -.360E+02   0.535E+02 0.433E+01 0.362E+02   0.322E-01 0.201E+00 -.154E+00   -.991E-02 0.159E-02 -.126E-01
   0.524E+02 -.284E+01 0.468E+03   -.523E+02 0.220E+01 -.464E+03   0.142E-01 0.225E+00 -.309E+01   -.905E-02 0.399E-02 -.163E-01
   0.569E+02 -.411E+01 -.583E+02   -.566E+02 0.367E+01 0.591E+02   -.310E+00 0.439E+00 -.766E+00   0.212E-03 0.528E-03 -.234E-02
   -.675E+02 -.342E+01 0.238E+03   0.676E+02 0.363E+01 -.238E+03   0.101E+00 0.179E+00 0.197E+00   -.263E-01 -.660E-02 -.246E-01
   0.647E+01 -.583E+02 -.335E+03   -.524E+01 0.571E+02 0.333E+03   -.123E+01 0.123E+01 0.205E+01   -.260E-02 -.222E-02 0.192E-02
   0.410E+02 0.895E+00 0.482E+03   -.403E+02 -.764E+00 -.478E+03   -.869E+00 -.313E+00 -.328E+01   -.594E-02 -.259E-02 -.180E-01
   0.427E+02 0.120E+00 -.200E+02   -.422E+02 0.106E+00 0.205E+02   -.458E+00 -.225E+00 -.490E+00   0.170E-02 -.977E-03 -.625E-02
   -.916E+02 0.548E+00 0.212E+03   0.913E+02 -.712E+00 -.213E+03   0.387E+00 0.247E+00 0.731E-01   -.217E-01 0.727E-02 -.244E-01
   -.531E+02 0.154E+01 -.389E+03   0.523E+02 -.236E+01 0.387E+03   0.732E+00 0.827E+00 0.212E+01   -.249E-02 -.132E-02 0.198E-02
   0.334E+02 0.319E+02 -.326E+03   -.323E+02 -.311E+02 0.325E+03   -.105E+01 -.817E+00 0.138E+01   0.192E-02 -.166E-02 0.250E-02
   0.535E+02 -.608E+01 0.246E+03   -.528E+02 0.598E+01 -.246E+03   -.741E+00 0.362E+00 -.120E+00   -.357E-02 -.238E-03 -.143E-01
   -.141E+03 -.427E+02 0.562E+03   0.140E+03 0.421E+02 -.558E+03   0.838E+00 0.717E-01 -.327E+01   -.993E-02 -.716E-02 -.120E-01
   -.147E+03 -.446E+02 -.474E+02   0.146E+03 0.441E+02 0.481E+02   0.429E+00 0.439E+00 -.642E+00   -.100E-01 0.258E-02 -.298E-01
   -.155E+03 0.509E+01 0.237E+03   0.154E+03 -.516E+01 -.237E+03   0.804E+00 0.361E+00 0.245E+00   -.239E-01 -.454E-02 -.273E-01
   -.110E+03 -.124E+01 -.389E+03   0.110E+03 0.158E+01 0.388E+03   0.525E+00 -.341E+00 0.163E+01   -.537E-02 0.211E-02 -.540E-04
   0.104E+03 0.107E+03 -.631E+03   -.104E+03 -.108E+03 0.637E+03   0.139E+00 0.667E+00 -.556E+01   0.277E-01 0.890E-02 0.316E-02
   -.488E+02 0.116E+02 -.804E+03   0.491E+02 -.140E+02 0.819E+03   -.292E+00 0.230E+01 -.149E+02   -.148E-01 0.126E-01 0.212E-01
   0.174E+03 0.173E+02 -.613E+03   -.174E+03 -.190E+02 0.618E+03   0.807E+00 0.168E+01 -.556E+01   0.103E-01 0.270E-01 0.113E-01
   -.272E+02 0.807E+01 -.719E+03   0.269E+02 -.606E+01 0.728E+03   0.251E+00 -.203E+01 -.920E+01   0.102E-01 0.737E-02 -.114E-01
   0.626E+02 -.444E+02 -.805E+03   -.625E+02 0.484E+02 0.822E+03   -.108E+00 -.406E+01 -.169E+02   0.173E-01 0.892E-02 0.841E-03
   0.207E+02 -.666E+02 -.929E+03   -.168E+02 0.659E+02 0.949E+03   -.386E+01 0.716E+00 -.194E+02   0.943E-02 0.119E-01 0.163E-01
   -.127E+03 -.901E+02 -.978E+03   0.126E+03 0.894E+02 0.997E+03   0.115E+01 0.727E+00 -.188E+02   -.247E-01 0.428E-02 -.181E-01
   0.210E+02 0.107E+02 -.968E+03   -.214E+02 -.988E+01 0.988E+03   0.403E+00 -.818E+00 -.205E+02   -.942E-02 0.158E-01 0.309E-01
   0.364E+02 -.167E+02 -.809E+03   -.376E+02 0.173E+02 0.827E+03   0.117E+01 -.678E+00 -.177E+02   0.243E-01 0.120E-01 -.757E-02
   0.105E+01 0.311E+01 0.146E+03   -.185E-12 0.135E-12 0.261E-11   -.126E+01 -.310E+01 -.145E+03   0.207E+00 0.103E-02 -.132E+01

 POSITION                                       TOTAL-FORCE (eV/Angst)
      8.57631      8.29685     10.39845        -0.070578     -0.164187     -0.000882
      8.58709      3.73261     15.14287         0.001167      0.002163      0.000517
      8.46496      6.01015     17.26186         0.004425     -0.003304      0.000825
      8.51616      0.79995     12.43874        -0.047597     -0.095324     -0.125210
     13.52475      6.12116     15.24966        -0.004561      0.001344     -0.000492
     13.49094      1.15316     10.44749        -0.039720     -0.408255     -0.037895
     10.03344      3.28428     12.67411        -0.084837      0.460658     -0.549822
      9.96867      8.40588     17.23738         0.000921     -0.000895     -0.000865
      7.12524      5.81577     10.15765        -0.122986     -0.452484      0.919956
      7.06290      1.29479     14.98493        -0.003374     -0.003316      0.002805
      8.51222      3.28036     10.20450         0.289504      0.042642      0.815036
      8.49642      8.33057     14.87401         0.000911     -0.002185     -0.000487
     10.22263      8.06723     12.77991         0.284373      0.312633     -0.382352
     10.27247      3.88701     17.36639        -0.000602      0.001371      0.000817
      5.42664      8.10481     10.20639         0.311056      0.061384      0.899559
      5.37272      3.53439     15.09591        -0.002354      0.002336     -0.000143
      8.52843      5.75423     12.65640         0.035531     -0.172832     -0.261876
      8.67930      1.42245     17.32859        -0.004476      0.002153     -0.000722
      3.84829      7.97317     12.47259        -0.501021      0.481977     -0.527992
      3.87687      3.39029     17.45858         0.005835     -0.003242     -0.006221
      3.82976      5.67235     14.82125        -0.000091     -0.000092     -0.000734
      3.90063      0.73891     10.00000         0.467431     -0.186912      0.382259
     10.15386      6.07434     14.92135        -0.000981     -0.002602      0.001234
     10.19112      1.10470     10.13736        -0.207945     -0.016412      0.330774
      6.82945      7.99424     12.66670        -0.022734      0.292666     -0.432859
      6.90979      3.64154     17.39772        -0.000707     -0.007422     -0.002024
     11.54117      6.20286     17.33186         0.003467     -0.002700     -0.001970
     11.66772      1.05372     12.57547        -0.172426     -0.161451     -0.679058
     11.73919      3.33868     10.41199        -0.263171     -0.100212      0.569272
     11.75951      8.28346     15.29690         0.001263      0.000518     -0.001164
      7.18522      3.24644     12.75390        -0.139818      0.294916     -0.430702
      7.30206      8.44750     17.37545         0.002307     -0.001038     -0.000121
      6.83068      5.95936     14.87349         0.000111      0.000071      0.003779
      6.87795      0.97560     10.08695        -0.056934     -0.019654      0.167111
      5.51084      5.55012     12.48419        -0.185894      0.300076     -0.457595
      5.60027      1.00793     17.49853        -0.000840      0.001063     -0.003801
      3.51249      3.50019     12.83519        -0.005372     -0.159460     -0.192527
      3.20821      8.71552     17.51512         0.003381     -0.008532      0.002229
      3.46798      5.87237     10.40868         0.067155     -0.237410     -0.044714
      3.46264      1.32849     15.17173         0.002298      0.000866      0.001858
     11.91771      8.21633     10.24534        -0.215937     -0.007338      0.686263
     11.90791      3.66564     15.09321         0.000430     -0.003043     -0.001546
      5.24135      3.36543     10.32679         0.149028      0.097031      0.181729
      5.19929      8.36089     15.10636        -0.000179     -0.000922      0.000803
      5.27115      6.17545     17.34670        -0.005942     -0.002316      0.000616
      5.28930      0.99064     12.60849         0.181112     -0.023286     -0.354605
      1.60538      5.84491     12.85122         0.095371     -0.008433     -0.577584
      1.40260      1.66473     17.58444        -0.000335     -0.003806     -0.003499
     13.72038      5.67134     10.18293         0.171837      0.079376      0.633976
     13.69593      1.08560     15.02354        -0.000059     -0.001379     -0.002917
      1.63456      8.33987     10.36453         0.035641     -0.414842      0.157083
      1.61639      3.76909     15.33730         0.002506     -0.001208     -0.001823
     13.76831      3.16119     12.53308         0.150846      0.382415     -0.241735
      0.07903      8.26903     17.50074        -0.004703     -0.003967      0.002121
      1.99440      3.17314     10.17666        -0.131799     -0.183911      0.638028
      1.90030      8.09687     15.03636        -0.000539      0.000255      0.003555
     13.48051      8.37930     12.86886         0.069245      0.089259     -0.311960
     13.27889      4.10306     17.80397         0.004314      0.000146     -0.000291
      1.92543      5.95757     17.57811        -0.003852     -0.001831     -0.000290
      2.02729      0.87737     12.46815        -0.000794      0.265534     -0.417292
     10.07171      5.79402     10.14663         0.132985     -0.572067      0.150712
     10.16214      1.19659     14.88280         0.000154     -0.000958      0.001842
     11.97051      5.66181     12.67660        -0.164283      0.291428     -0.510565
     11.85513      1.34565     17.73090         0.002969     -0.006443      0.000761
      5.24004      8.43894     17.44173        -0.004923      0.001686      0.000742
     13.52334      2.24353     18.71491        -0.000215      0.000538     -0.000874
      3.55523      1.20965     17.54825        -0.000290      0.001943      0.000406
     13.46221      6.22259     18.17120        -0.003060     -0.004538     -0.001967
      3.72312      5.15848     18.39218        -0.003763     -0.001472      0.001876
      5.54796      2.79573     18.47432         0.000113     -0.002917      0.004162
     10.17756      0.42391     18.49141         0.003142     -0.004533      0.001820
      7.25203      0.51442     18.46935         0.001337     -0.005785      0.002302
      1.90541      7.86894     18.61928        -0.002474     -0.003528      0.002349
    total drift:                               -0.001754      0.010776      0.025369

  FREE ENERGIE OF THE ION-ELECTRON SYSTEM (eV)
  free  energy   TOTEN  =      -598.01227564 eV

  energy  without entropy=     -598.01792466  energy(sigma->0) =     -598.01368789

 d Force = 0.4941481E-04[ 0.954E-05, 0.893E-04]  d Energy = 0.8660537E-04-0.372E-04
 d Force = 0.1612249E+01[ 0.161E+01, 0.161E+01]  d Ewald  = 0.1612249E+01-0.418E-06

 reached required accuracy - stopping structural energy minimisation