 vasp.5.4.1 05Feb16 (build Mar 19 2020 08:54:17) complex

 executed on           IFC91_ompi date 2021.10.24  12:23:34

 INCAR:
 POTCAR:    PAW_PBE Al 04Jan2001
 POTCAR:    PAW_PBE Nb_sv 25May2007
 POTCAR:    PAW_PBE Ta 17Jan2003
 POTCAR:    PAW_PBE Ti 08Apr2002
 POTCAR:   PAW_PBE Zr 08Apr2002
 POTCAR:    PAW_PBE O 08Apr2002

 POTCAR:    PAW_PBE Al 04Jan2001
   VRHFIN =Al: s2p1

   TITEL  = PAW_PBE Al 04Jan2001
   POMASS =   26.981; ZVAL   =    3.000    mass and valenz
   ENMAX  =  240.300; ENMIN  =  180.225 eV

 POTCAR:    PAW_PBE Nb_sv 25May2007
   VRHFIN =Nb: 4p5s4d

   TITEL  = PAW_PBE Nb_sv 25May2007
   POMASS =   92.910; ZVAL   =   13.000    mass and valenz
   ENMAX  =  293.235; ENMIN  =  219.927 eV

 POTCAR:    PAW_PBE Ta 17Jan2003
   VRHFIN =Ta:  6s5d

   TITEL  = PAW_PBE Ta 17Jan2003
   POMASS =  180.948; ZVAL   =    5.000    mass and valenz
   ENMAX  =  223.667; ENMIN  =  167.750 eV

 POTCAR:    PAW_PBE Ti 08Apr2002
   VRHFIN =Ti: d3 s1

   TITEL  = PAW_PBE Ti 08Apr2002
   POMASS =   47.880; ZVAL   =    4.000    mass and valenz
   ENMAX  =  178.330; ENMIN  =  133.747 eV

 POTCAR:   PAW_PBE Zr 08Apr2002
   VRHFIN =Zr: 5s4d5p

   TITEL  = PAW_PBE Zr 08Apr2002
   POMASS =   91.224; ZVAL   =    4.000    mass and valenz
   ENMAX  =  154.632; ENMIN  =  115.974 eV
   QCUT   =   -3.371; QGAM   =    6.742    optimization parameters

   Description
     l     E      TYP  RCUT    TYP  RCUT
     2   .000     23  3.000
     2   .000     23  3.000
     0   .000     23  3.000
     0  2.000     23  3.000
     1  -.400     23  3.000
     3   .000      7   .000

 POTCAR:    PAW_PBE O 08Apr2002
   VRHFIN =O: s2p4

   TITEL  = PAW_PBE O 08Apr2002
   POMASS =   16.000; ZVAL   =    6.000    mass and valenz
   ENMAX  =  400.000; ENMIN  =  300.000 eV

 WARNING: PSMAXN for non-local potential too small
          PSMAXN should be >   12.5490833729506       NTYP=           5
  PAW_PBE Al 04Jan2001                  :
  PAW_PBE Nb_sv 25May2007               :
  PAW_PBE Ta 17Jan2003                  :
  PAW_PBE Ti 08Apr2002                  :
 PAW_PBE Zr 08Apr2002                   :
  PAW_PBE O 08Apr2002                   :

 POSCAR: Al Nb Ta Ti Zr
  positions in direct lattice
  velocities in cartesian coordinates
 exchange correlation table for  LEXCH =        8
   RHO(1)=    0.500       N(1)  =     2000
   RHO(2)=  100.500       N(2)  =     4000

 ion  position               nearest neighbor table
   1  0.623  0.867  0.376-  34 2.83  25 2.88  24 2.88   9 2.88  13 2.90   4 2.91  61 2.93  15 3.16
                            41 3.35  17 3.40
   2  0.616  0.397  0.547-  31 2.76  33 2.82  23 2.83  14 2.92  10 2.92   7 2.95  26 3.01  62 3.01
                             3 3.05  16 3.14  17 3.16  42 3.49
   3  0.586  0.622  0.623-  79 1.83  75 1.84  78 1.90  32 2.63  33 2.73  26 2.82   8 2.82  45 2.92
                            23 3.00   2 3.05  14 3.11
   4  0.618  0.084  0.450-  31 2.80  24 2.86  34 2.87  13 2.88   1 2.91  25 2.92   7 2.92  62 2.97
                            10 3.06  28 3.16  46 3.24
   5  0.980  0.635  0.549-  27 2.78  30 2.81  56 2.93  42 2.95  63 2.97  47 3.01  52 3.04  59 3.20
                            57 3.27  54 3.33  58 3.55
   6  0.980  0.121  0.378-  29 2.80  28 2.80  53 2.91  41 2.96  51 3.05  55 3.05  60 3.08  57 3.37

   7  0.729  0.343  0.458-  28 2.77  29 2.83  31 2.85  17 2.89  11 2.90   4 2.92   2 2.95  62 3.05
                            63 3.07  42 3.14
   8  0.722  0.842  0.632-  78 2.02  71 2.04  77 2.07  79 2.15  27 2.70  32 2.80   3 2.82  30 2.86
                            12 2.89  18 2.92  23 3.11  64 3.20
   9  0.517  0.608  0.367-  35 2.84  15 2.85  17 2.87   1 2.88  11 2.89  61 2.95  43 3.10
  10  0.510  0.131  0.545-  16 2.83  36 2.90  18 2.91   2 2.92  12 2.95  46 3.03  62 3.03   4 3.06
                            31 3.06  44 3.12
  11  0.618  0.343  0.369-  24 2.75  34 2.83  31 2.87   9 2.89   7 2.90  61 2.96  43 3.27
  12  0.621  0.868  0.541-  13 2.76  23 2.80  32 2.80  33 2.86  25 2.89   8 2.89  62 2.92  10 2.95
                            44 3.42
  13  0.742  0.843  0.462-  12 2.76  17 2.87   4 2.88   1 2.90  28 2.94  63 2.98  30 3.02  41 3.05
                            23 3.11  57 3.27
  14  0.739  0.386  0.633-  74 2.01  76 2.01  79 2.25   2 2.92  42 2.95  18 3.01  27 3.02  64 3.06
                             3 3.11  58 3.13
  15  0.394  0.847  0.369-  22 2.68  19 2.76  25 2.83  34 2.84   9 2.85  39 2.98   1 3.16  46 3.43

  16  0.389  0.370  0.547-  21 2.63  20 2.80  10 2.83  26 2.89  33 2.90  40 2.92  37 2.94  31 3.01
                             2 3.14  45 3.45
  17  0.619  0.602  0.458-  33 2.79  25 2.81  31 2.85   9 2.87  13 2.87   7 2.89  61 2.95  23 3.00
                            35 3.03   2 3.16   1 3.40  63 3.44
  18  0.628  0.116  0.632-  71 2.04  72 2.04  74 2.06  32 2.69  10 2.91  62 2.92   8 2.92  26 2.98
                            14 3.01  64 3.16  36 3.18
  19  0.279  0.834  0.451-  15 2.76  44 2.92  35 2.94  46 2.96  39 2.97  25 2.99  60 3.07  51 3.08
                            47 3.12  56 3.26  21 3.31
  20  0.271  0.345  0.629-  69 1.99  70 2.04  67 2.17  16 2.80  36 2.95  48 3.04  52 3.06  40 3.06
                            59 3.08  26 3.09  45 3.18
  21  0.274  0.587  0.535-  16 2.63  35 2.89  37 2.89  47 2.92  52 2.96  45 2.97  33 3.05  44 3.05
                            56 3.12  59 3.26  19 3.31
  22  0.283  0.077  0.361-  15 2.68  46 2.97  43 2.97  34 2.99  51 3.02  55 3.10  60 3.10
  23  0.740  0.632  0.547-  79 2.17  12 2.80  30 2.80   2 2.83  27 2.88   3 3.00  17 3.00  42 3.04
                            63 3.06  13 3.11   8 3.11
  24  0.740  0.115  0.366-  29 2.73  11 2.75  28 2.85   4 2.86   1 2.88  41 3.00
  25  0.496  0.836  0.458-  35 2.78  17 2.81  15 2.83   1 2.88  12 2.89  33 2.91   4 2.92  44 2.96
                            19 2.99  46 2.99
  26  0.495  0.362  0.637-  75 1.90  70 1.90  74 1.96   3 2.82  36 2.87  16 2.89  18 2.98   2 3.01
                            20 3.09  45 3.17
  27  0.864  0.646  0.631-  79 2.02  76 2.02  68 2.03  77 2.13   8 2.70  58 2.72   5 2.78  23 2.88
                            54 2.98  30 3.01  14 3.02  42 3.50
  28  0.847  0.110  0.455-   7 2.77   6 2.80  24 2.85  62 2.87  57 2.90  13 2.94  53 2.98  50 3.04
                            29 3.15   4 3.16  41 3.36
  29  0.852  0.349  0.376-  24 2.73   6 2.80   7 2.83  53 2.94  61 2.98  49 3.07  28 3.15  63 3.25

  30  0.858  0.870  0.555-  77 2.17  23 2.80   5 2.81   8 2.86  50 2.98  57 2.98  27 3.01  13 3.02
                            62 3.06  64 3.25  54 3.30
  31  0.522  0.339  0.461-   2 2.76   4 2.80  17 2.85   7 2.85  35 2.86  11 2.87  46 2.95  16 3.01
                            10 3.06  43 3.11
  32  0.520  0.881  0.629-  78 1.88  72 2.01  65 2.03   3 2.63  36 2.67  18 2.69  12 2.80   8 2.80
                            45 3.03  44 3.09
  33  0.494  0.631  0.536-  35 2.72   3 2.73  17 2.79   2 2.82  44 2.85  12 2.86  16 2.90  25 2.91
                            45 3.03  21 3.05
  34  0.499  0.102  0.365-  11 2.83   1 2.83  15 2.84   4 2.87  43 2.91  46 2.98  22 2.99
  35  0.400  0.580  0.451-  33 2.72  25 2.78   9 2.84  31 2.86  37 2.88  21 2.89  39 2.93  19 2.94
                            17 3.03  43 3.08
  36  0.397  0.097  0.633-  72 1.94  70 2.01  67 2.04  65 2.15  32 2.67  26 2.87  10 2.90  38 2.95
                            20 2.95  40 3.12  18 3.18  44 3.27
  37  0.255  0.366  0.464-  35 2.88  21 2.89  16 2.94  47 3.02  60 3.04  43 3.05  55 3.08  46 3.08
                            52 3.09  40 3.17  39 3.39
  38  0.228  0.909  0.634-  73 1.87  65 2.03  67 2.05  56 2.85  54 2.87  36 2.95  48 2.97  59 3.13
                            44 3.20  45 3.25  40 3.27
  39  0.252  0.614  0.376-  35 2.93  19 2.97  15 2.98  47 3.07  43 3.07  51 3.07  55 3.08  37 3.39
                            49 3.53
  40  0.254  0.135  0.546-  67 2.37  16 2.92  44 3.00  60 3.05  20 3.06  52 3.07  46 3.09  36 3.12
                            37 3.17  48 3.19  56 3.22  38 3.27  50 3.61
  41  0.865  0.859  0.370-   6 2.96  24 3.00  61 3.05  13 3.05  57 3.06  49 3.12   1 3.35  28 3.36
                            51 3.49  63 3.53
  42  0.868  0.372  0.547-  14 2.95   5 2.95  62 3.00  23 3.04  50 3.08   7 3.14  58 3.16  53 3.20
                            63 3.24  52 3.41   2 3.49  64 3.50  27 3.50
  43  0.381  0.352  0.373-  34 2.91  22 2.97  37 3.05  39 3.07  35 3.08   9 3.10  31 3.11  55 3.26
                            11 3.27  46 3.29
  44  0.373  0.872  0.545-  65 2.33  33 2.85  19 2.92  25 2.96  40 3.00  21 3.05  32 3.09  10 3.12
                            45 3.18  38 3.20  36 3.27  56 3.28  46 3.31  12 3.42
  45  0.374  0.643  0.628-  69 2.11  75 2.14  65 2.22   3 2.92  21 2.97  33 3.03  32 3.03  26 3.17
                            44 3.18  20 3.18  59 3.23  38 3.25  16 3.45
  46  0.384  0.104  0.456-  31 2.95  19 2.96  22 2.97  34 2.98  25 2.99  10 3.03  37 3.08  40 3.09
                             4 3.24  60 3.27  43 3.29  44 3.31  15 3.43
  47  0.117  0.611  0.465-  21 2.92   5 3.01  37 3.02  39 3.07  19 3.12  53 3.14  49 3.15  56 3.15
                            57 3.17  52 3.23  63 3.42  51 3.52  55 3.80
  48  0.095  0.153  0.630-  66 2.10  67 2.16  50 2.95  38 2.97  20 3.04  54 3.04  58 3.09  52 3.12
                            40 3.19  64 3.31  56 3.83
  49  0.996  0.593  0.368-  63 3.05  29 3.07  41 3.12  47 3.15  51 3.16  55 3.23  53 3.44  39 3.53
                            61 3.65  57 3.82
  50  0.993  0.107  0.537-  48 2.95  30 2.98  57 2.98  28 3.04  42 3.08  53 3.16  52 3.17  56 3.20
                            60 3.20  64 3.34  40 3.61  62 3.63  54 3.77
  51  0.119  0.872  0.375-  60 3.00  22 3.02   6 3.05  39 3.07  19 3.08  57 3.16  49 3.16  41 3.49
                            47 3.52
  52  0.115  0.385  0.551-  21 2.96   5 3.04  20 3.06  40 3.07  37 3.09  59 3.10  48 3.12  50 3.17
                            53 3.19  47 3.23  42 3.41  58 3.46
  53  1.000  0.331  0.453-   6 2.91  29 2.94  28 2.98  60 3.06  63 3.08  55 3.09  47 3.14  50 3.16
                            52 3.19  42 3.20  49 3.44
  54  0.024  0.854  0.640-  77 2.11  73 2.16  68 2.23  38 2.87  59 2.87  27 2.98  48 3.04  56 3.07
                            30 3.30   5 3.33  64 3.39  50 3.77
  55  0.145  0.332  0.368-   6 3.05  37 3.08  39 3.08  53 3.09  22 3.10  49 3.23  60 3.24  43 3.26
                            47 3.80
  56  0.136  0.844  0.545-  38 2.85   5 2.93  54 3.07  57 3.09  21 3.12  47 3.15  50 3.20  40 3.22
                            19 3.26  44 3.28  59 3.32  60 3.52  48 3.83
  57  0.979  0.876  0.465-  28 2.90  50 2.98  30 2.98  41 3.06  56 3.09  63 3.11  60 3.13  51 3.16
                            47 3.17   5 3.27  13 3.27   6 3.37  49 3.82
  58  0.964  0.408  0.651-  66 2.06  76 2.08  68 2.23  27 2.72  48 3.09  14 3.13  59 3.14  42 3.16
                            64 3.20  52 3.46   5 3.55
  59  0.141  0.607  0.632-  69 2.12  68 2.18  73 2.19  54 2.87  20 3.08  52 3.10  38 3.13  58 3.14
                             5 3.20  45 3.23  21 3.26  56 3.32
  60  0.147  0.092  0.451-  51 3.00  37 3.04  40 3.05  53 3.06  19 3.07   6 3.08  22 3.10  57 3.13
                            50 3.20  55 3.24  46 3.27  56 3.52
[...]

 FORCES acting on ions
    electron-ion (+dipol)            ewald-force                    non-local-force                 convergence-correction
   -.469E+02 -.349E+02 0.446E+03   0.468E+02 0.347E+02 -.445E+03   0.106E+00 0.708E-01 -.831E+00   -.139E-02 0.371E-02 0.100E-03
   -.171E+02 -.186E+02 0.286E+01   0.168E+02 0.187E+02 -.385E+01   0.267E+00 -.122E+00 0.982E+00   0.436E-02 -.490E-03 0.103E-01
   0.761E+02 0.441E+02 -.209E+03   -.784E+02 -.415E+02 0.208E+03   0.228E+01 -.255E+01 0.109E+01   0.384E-02 0.762E-03 0.467E-02
   0.406E+01 0.509E+01 0.279E+03   -.392E+01 -.487E+01 -.279E+03   -.173E+00 -.295E+00 -.298E+00   -.650E-03 -.115E-03 0.411E-02
   -.760E+02 0.142E+02 0.244E+02   0.756E+02 -.138E+02 -.249E+02   0.414E+00 -.422E+00 0.520E+00   -.413E-02 0.144E-02 0.119E-01
   -.461E+02 0.446E+01 0.390E+03   0.454E+02 -.386E+01 -.388E+03   0.689E+00 -.999E+00 -.225E+01   -.108E-03 0.152E-02 0.393E-03
   -.378E+03 0.612E+01 0.851E+03   0.378E+03 -.548E+01 -.852E+03   0.268E+00 -.229E+00 0.109E+01   0.791E-02 0.755E-03 0.315E-01
   -.245E+03 -.646E+02 -.124E+04   0.243E+03 0.665E+02 0.124E+04   0.244E+01 -.189E+01 0.144E+01   0.811E-02 -.881E-02 0.100E-01
   0.101E+03 -.751E+01 0.191E+04   -.101E+03 0.637E+01 -.190E+04   -.555E+00 0.628E+00 -.436E+01   0.693E-02 0.397E-02 -.573E-02
   0.174E+03 -.686E+01 0.105E+03   -.174E+03 0.672E+01 -.103E+03   0.591E+00 0.137E+00 -.145E+01   0.920E-02 -.259E-02 0.525E-01
   -.534E+02 0.141E+03 0.198E+04   0.541E+02 -.141E+03 -.197E+04   -.514E+00 -.419E+00 -.270E+01   0.222E-02 -.180E-01 -.230E-02
   0.751E+02 0.374E+02 0.150E+03   -.746E+02 -.379E+02 -.150E+03   -.555E+00 0.467E+00 -.316E+00   0.107E-01 0.674E-02 0.524E-01
   -.408E+03 -.173E+02 0.113E+04   0.409E+03 0.163E+02 -.113E+04   -.640E+00 0.129E+01 -.130E+01   0.277E-02 -.952E-03 0.432E-01
   -.274E+03 0.196E+03 -.105E+04   0.275E+03 -.198E+03 0.105E+04   -.167E+01 0.181E+01 0.417E+00   0.187E-01 0.518E-02 0.860E-02
   0.296E+03 -.118E+03 0.182E+04   -.296E+03 0.118E+03 -.181E+04   0.244E+00 -.360E+00 -.426E+01   -.972E-04 0.329E-01 -.929E-02
   0.373E+03 -.126E+03 0.624E+02   -.374E+03 0.126E+03 -.621E+02   0.467E+00 0.163E+00 -.378E+00   0.448E-02 -.173E-01 0.550E-01
   -.155E+02 0.404E+01 0.342E+03   0.151E+02 -.391E+01 -.342E+03   0.655E+00 -.205E+00 0.188E+00   0.660E-02 0.400E-03 0.128E-01
   -.313E+02 -.440E+02 -.445E+03   0.310E+02 0.434E+02 0.444E+03   0.319E+00 0.552E+00 0.788E+00   0.277E-02 -.803E-03 0.505E-02
   0.176E+03 -.602E+01 0.319E+03   -.175E+03 0.592E+01 -.320E+03   -.144E+01 0.531E+00 0.509E+00   -.191E-02 0.855E-02 0.662E-02
   0.208E+03 -.209E+02 -.420E+03   -.207E+03 0.228E+02 0.418E+03   -.109E+01 -.190E+01 0.236E+01   -.240E-02 -.204E-02 0.102E-01
   0.140E+03 -.528E+02 0.491E+02   -.139E+03 0.529E+02 -.491E+02   -.384E+00 -.156E+00 -.151E-01   -.280E-02 0.167E-02 0.160E-01
   0.116E+03 -.558E+02 0.552E+03   -.115E+03 0.559E+02 -.549E+03   -.832E+00 -.242E+00 -.263E+01   0.369E-02 0.361E-04 -.154E-02
   -.118E+03 0.723E+02 0.726E+02   0.118E+03 -.715E+02 -.742E+02   -.156E+00 -.858E+00 0.157E+01   0.512E-02 0.935E-04 0.152E-01
   -.996E+02 0.596E+02 0.606E+03   0.989E+02 -.591E+02 -.603E+03   0.432E+00 -.495E+00 -.290E+01   -.194E-02 0.239E-02 -.572E-03
   0.758E+02 -.200E+02 0.288E+03   -.767E+02 0.193E+02 -.288E+03   0.943E+00 0.957E+00 -.650E+00   0.305E-02 0.567E-02 0.668E-02
   0.466E+02 -.168E+02 -.379E+03   -.473E+02 0.169E+02 0.378E+03   0.746E+00 -.147E+00 0.359E+00   0.269E-02 -.179E-02 0.649E-02
   -.176E+03 0.128E+02 -.306E+03   0.176E+03 -.142E+02 0.305E+03   -.461E+00 0.141E+01 0.124E+01   0.510E-03 -.663E-03 0.337E-02
   -.160E+03 0.557E+01 0.310E+03   0.160E+03 -.539E+01 -.310E+03   0.222E+00 -.328E+00 0.533E-01   0.157E-03 0.107E-02 0.966E-02
   -.150E+03 -.515E+01 0.568E+03   0.149E+03 0.511E+01 -.565E+03   0.765E+00 -.328E-01 -.250E+01   -.648E-03 -.138E-02 0.921E-03
   -.195E+03 -.295E+02 0.440E+02   0.194E+03 0.295E+02 -.453E+02   0.125E+01 -.506E-01 0.136E+01   0.961E-03 -.206E-02 0.149E-01
   0.854E+02 0.835E+01 0.292E+03   -.857E+02 -.791E+01 -.293E+03   0.770E-01 -.137E+00 -.107E+00   0.400E-02 -.500E-02 0.694E-02
   0.122E+03 0.301E+02 -.359E+03   -.121E+03 -.295E+02 0.358E+03   -.114E+01 -.679E+00 0.100E+01   0.259E-02 0.916E-03 0.561E-02
   0.856E+02 0.773E+01 0.336E+02   -.858E+02 -.743E+01 -.338E+02   0.200E+00 -.299E+00 0.161E+00   0.686E-02 0.118E-02 0.153E-01
   0.350E+02 -.147E+01 0.585E+03   -.357E+02 0.140E+01 -.582E+03   0.658E+00 0.165E-01 -.243E+01   -.248E-02 -.555E-03 -.151E-02
   0.132E+03 0.135E+02 0.282E+03   -.132E+03 -.137E+02 -.282E+03   -.801E+00 0.573E+00 -.287E+00   0.284E-02 0.127E-02 0.523E-02
   0.110E+03 0.222E+02 -.378E+03   -.109E+03 -.205E+02 0.376E+03   -.156E+01 -.166E+01 0.138E+01   0.162E-02 -.866E-03 0.595E-02
   0.125E+03 0.820E+01 0.306E+03   -.125E+03 -.810E+01 -.305E+03   0.135E+00 -.243E+00 -.776E+00   -.217E-02 -.612E-02 0.729E-02
   0.874E+02 0.662E+01 -.334E+03   -.891E+02 -.735E+01 0.332E+03   0.168E+01 0.722E+00 0.200E+01   -.383E-02 0.139E-02 0.565E-02
   0.126E+03 0.396E+02 0.515E+03   -.126E+03 -.394E+02 -.513E+03   0.153E+00 -.464E+00 -.272E+01   -.843E-03 0.209E-02 -.246E-02
   0.148E+03 0.342E+02 0.570E+02   -.148E+03 -.333E+02 -.573E+02   -.233E+00 -.870E+00 0.262E+00   -.256E-02 -.249E-02 0.132E-01
   -.988E+02 -.149E+01 0.574E+03   0.990E+02 0.148E+01 -.570E+03   -.405E+00 -.128E-01 -.306E+01   -.752E-03 0.168E-02 0.124E-02
   -.158E+03 0.157E+02 0.235E+02   0.158E+03 -.157E+02 -.231E+02   0.400E+00 -.422E-01 -.343E+00   -.997E-03 0.105E-02 0.148E-01
   0.130E+03 0.291E+02 0.541E+03   -.129E+03 -.294E+02 -.538E+03   -.249E+00 0.343E+00 -.251E+01   0.156E-02 -.900E-02 -.362E-02
   0.149E+03 0.300E+02 0.417E+02   -.149E+03 -.298E+02 -.424E+02   -.563E+00 -.216E+00 0.723E+00   0.635E-03 0.398E-02 0.135E-01
   0.102E+03 -.275E+02 -.330E+03   -.101E+03 0.253E+02 0.328E+03   -.422E+00 0.222E+01 0.177E+01   0.299E-03 0.139E-02 0.917E-02
   0.122E+03 -.812E+01 0.323E+03   -.122E+03 0.779E+01 -.323E+03   0.560E+00 0.404E+00 -.261E+00   0.822E-03 -.197E-02 0.241E-02
   0.351E+02 0.277E+01 0.263E+03   -.350E+02 -.277E+01 -.264E+03   -.180E+00 -.888E-02 0.788E-01   -.552E-02 0.205E-02 0.102E-01
   0.189E+02 -.232E+01 -.308E+03   -.195E+02 0.206E+01 0.306E+03   0.608E+00 0.272E+00 0.148E+01   -.319E-02 -.245E-02 0.507E-02
   -.416E+02 0.747E-01 0.526E+03   0.418E+02 0.302E+00 -.522E+03   -.228E-01 -.272E+00 -.282E+01   -.233E-02 -.211E-02 0.653E-03
   -.725E+02 -.120E+02 0.407E+02   0.725E+02 0.121E+02 -.407E+02   -.359E-02 -.965E-01 -.722E-01   -.138E-02 -.181E-02 0.153E-01
   0.512E+02 -.295E+01 0.508E+03   -.511E+02 0.229E+01 -.505E+03   -.218E-01 0.230E+00 -.308E+01   0.207E-02 0.446E-02 0.414E-03
   0.512E+02 -.122E+01 -.105E+00   -.506E+02 0.738E+00 0.652E+00   -.599E+00 0.485E+00 -.565E+00   -.587E-02 -.218E-02 0.149E-01
   -.714E+02 -.409E+01 0.293E+03   0.714E+02 0.417E+01 -.294E+03   0.218E-01 0.302E+00 0.491E-01   -.359E-02 -.109E-02 0.872E-02
   -.687E+02 -.652E+02 -.354E+03   0.699E+02 0.644E+02 0.351E+03   -.126E+01 0.756E+00 0.234E+01   -.219E-02 0.481E-03 0.304E-02
   0.401E+02 0.968E+00 0.521E+03   -.394E+02 -.881E+00 -.517E+03   -.877E+00 -.292E+00 -.323E+01   -.447E-03 -.503E-02 -.182E-02
   0.331E+02 -.766E+00 0.307E+02   -.326E+02 0.111E+01 -.300E+02   -.537E+00 -.343E+00 -.665E+00   -.519E-02 0.304E-02 0.148E-01
   -.983E+02 0.103E+01 0.274E+03   0.978E+02 -.130E+01 -.274E+03   0.636E+00 0.188E+00 -.383E+00   -.106E-02 0.616E-03 0.136E-01
   -.148E+03 0.342E+02 -.385E+03   0.145E+03 -.348E+02 0.383E+03   0.231E+01 0.586E+00 0.151E+01   -.317E-02 0.113E-02 0.166E-02
   0.238E+02 0.329E+02 -.277E+03   -.228E+02 -.323E+02 0.276E+03   -.988E+00 -.634E+00 0.266E+00   -.464E-02 0.142E-02 0.698E-02
   0.503E+02 -.593E+01 0.298E+03   -.496E+02 0.589E+01 -.299E+03   -.670E+00 0.253E+00 -.185E+00   -.417E-03 -.171E-02 0.659E-02
[...]
   -.121E+03 0.262E+02 -.810E+03   0.122E+03 -.309E+02 0.825E+03   -.802E+00 0.468E+01 -.148E+02   -.318E-02 0.176E-02 -.259E-02
   0.199E+03 0.172E+02 -.562E+03   -.200E+03 -.187E+02 0.567E+03   0.772E+00 0.151E+01 -.520E+01   -.622E-02 -.349E-02 0.110E-01
   -.137E+03 0.213E+02 -.742E+03   0.138E+03 -.204E+02 0.754E+03   -.732E+00 -.840E+00 -.124E+02   -.111E-01 0.462E-02 -.441E-02
   0.123E+03 -.315E+02 -.810E+03   -.122E+03 0.350E+02 0.829E+03   -.123E+01 -.352E+01 -.188E+02   -.462E-02 -.734E-03 0.127E-01
   0.133E+03 -.114E+02 -.935E+03   -.132E+03 0.107E+02 0.955E+03   -.649E+00 0.705E+00 -.208E+02   0.518E-03 -.581E-03 0.832E-02
   -.137E+03 -.154E+03 -.101E+04   0.140E+03 0.155E+03 0.103E+04   -.284E+01 -.460E+00 -.210E+02   0.321E-02 -.295E-02 0.218E-02
   0.997E+02 0.480E+01 -.986E+03   -.102E+03 -.362E+01 0.101E+04   0.206E+01 -.117E+01 -.221E+02   -.252E-03 -.174E-02 0.812E-02
   0.143E+02 -.194E+02 -.848E+03   -.126E+02 0.163E+02 0.867E+03   -.171E+01 0.303E+01 -.189E+02   -.865E-02 0.226E-02 -.131E-03
   0.789E+02 0.259E+02 -.946E+03   -.810E+02 -.219E+02 0.964E+03   0.218E+01 -.401E+01 -.187E+02   -.502E-03 0.333E-02 0.179E-02
   0.120E+03 -.363E+02 -.871E+03   -.122E+03 0.387E+02 0.892E+03   0.197E+01 -.241E+01 -.208E+02   0.852E-03 -.216E-02 0.649E-02
   -.208E+03 -.383E+01 -.101E+04   0.204E+03 0.801E+01 0.103E+04   0.375E+01 -.419E+01 -.194E+02   0.578E-04 0.538E-02 -.112E-01
   -.350E+03 -.777E+02 -.562E+03   0.353E+03 0.817E+02 0.568E+03   -.281E+01 -.397E+01 -.581E+01   0.400E-02 -.242E-02 -.325E-02
   0.169E+03 0.649E+02 -.104E+04   -.171E+03 -.678E+02 0.106E+04   0.178E+01 0.284E+01 -.242E+02   0.396E-02 0.709E-02 -.225E-02
   -.566E+02 0.842E+02 -.479E+03   0.589E+02 -.877E+02 0.484E+03   -.226E+01 0.347E+01 -.586E+01   0.107E-01 0.233E-02 0.451E-02
   -.409E+01 0.633E+01 0.258E+03   0.853E-13 0.711E-13 -.125E-11   0.404E+01 -.635E+01 -.259E+03   0.502E-01 0.166E-01 0.650E+00

 POSITION                                       TOTAL-FORCE (eV/Angst)
      8.57631      8.29685     10.39845        -0.062148     -0.152565      0.020299
      8.47821      3.78885     15.13037         0.000801      0.000803      0.002580
      8.06929      5.95240     17.24499        -0.000514     -0.001448     -0.001087
      8.51616      0.79995     12.43874        -0.035429     -0.077365     -0.018126
     13.49357      6.07569     15.19168        -0.001555     -0.001301      0.001964
     13.49094      1.15316     10.44749        -0.011178     -0.396215     -0.080302
     10.03344      3.28428     12.67411        -0.023826      0.411655     -0.472348
      9.94140      8.05392     17.49007        -0.002040     -0.001423      0.000536
      7.12524      5.81577     10.15765        -0.160818     -0.511452      0.875031
      7.02589      1.25311     15.07186         0.001498     -0.001664     -0.006706
      8.51222      3.28036     10.20450         0.234225      0.042792      0.802239
      8.55321      8.29563     14.96340         0.000966     -0.001498     -0.003030
     10.22263      8.06723     12.77991         0.314704      0.237955      0.036471
     10.18187      3.69141     17.49927        -0.001138     -0.002789      0.002940
      5.42664      8.10481     10.20639         0.285344      0.058906      0.888394
      5.35168      3.53732     15.12239         0.000613     -0.000582     -0.001722
      8.52843      5.75423     12.65640         0.226423     -0.075266      0.019460
      8.64295      1.10660     17.48612        -0.001257      0.001263     -0.002517
      3.84829      7.97317     12.47259        -0.582293      0.437817     -0.652213
      3.73293      3.30624     17.40072        -0.000580     -0.004954     -0.001681
      3.77760      5.61695     14.78779         0.002647      0.001565      0.001695
      3.90063      0.73891     10.00000         0.474904     -0.166940      0.345492
     10.19678      6.04075     15.13615        -0.001362     -0.003214     -0.002178
     10.19112      1.10470     10.13736        -0.234092      0.012829      0.266121
      6.82945      7.99424     12.66670         0.047298      0.299520     -0.458158
      6.81377      3.45792     17.61312         0.000809     -0.001215      0.000821
     11.89266      6.18206     17.45755         0.000688     -0.000522      0.005372
     11.66772      1.05372     12.57547        -0.398445     -0.147392     -0.564985
     11.73919      3.33868     10.41199        -0.238684     -0.068081      0.660967
     11.81130      8.32466     15.34410         0.001631      0.000560      0.001140
      7.18522      3.24644     12.75390        -0.154999      0.296842     -0.336229
      7.16424      8.42150     17.39312        -0.001509     -0.003279     -0.001819
      6.79740      6.03654     14.82523         0.003503      0.000098     -0.001805
      6.87795      0.97560     10.08695        -0.032930     -0.049207      0.213487
      5.51084      5.55012     12.48419        -0.157626      0.322393     -0.583770
      5.47363      0.92780     17.49799         0.000095     -0.000368     -0.001800
      3.51249      3.50019     12.83519         0.064154     -0.151469     -0.322009
      3.13946      8.69316     17.53767         0.004004      0.002369     -0.002940
      3.46798      5.87237     10.40868         0.100579     -0.229157     -0.038987
      3.49866      1.28819     15.10935        -0.000550      0.000733     -0.000584
     11.91771      8.21633     10.24534        -0.224057     -0.021653      0.725700
     11.95443      3.55567     15.14288         0.002911     -0.002841     -0.002422
      5.24135      3.36543     10.32679         0.171858      0.076320      0.150572
      5.13792      8.33840     15.06497        -0.000275     -0.002041     -0.003561
      5.15302      6.14943     17.36450         0.002721     -0.000571      0.000194
      5.28930      0.99064     12.60849         0.314772      0.079035     -0.410151
      1.60538      5.84491     12.85122        -0.009641     -0.009831     -0.559948
      1.30956      1.46811     17.42080         0.000112      0.002792      0.001804
     13.72038      5.67134     10.18293         0.209401      0.102803      0.618925
     13.68048      1.02301     14.86067        -0.000193     -0.000235     -0.000912
      1.63456      8.33987     10.36453         0.073272     -0.417846      0.131823
      1.59004      3.68384     15.24758         0.000628     -0.000887     -0.001664
     13.76831      3.16119     12.53308         0.041337      0.383939     -0.384762
      0.32707      8.16600     17.71112        -0.002889     -0.000180      0.003531
      1.99440      3.17314     10.17666        -0.168158     -0.209821      0.620346
      1.86749      8.06940     15.06243         0.003092     -0.000385      0.001034
     13.48051      8.37930     12.86886         0.182743     -0.077109     -0.670503
     13.26954      3.89816     17.99671         0.001396     -0.001634      0.004054
      1.94373      5.80550     17.48489        -0.001047     -0.000943     -0.000684
      2.02729      0.87737     12.46815         0.027076      0.215996     -0.585661
[...]
      5.13533      8.37349     17.39054         0.001064     -0.000702     -0.002035
     13.45139      1.94993     18.65505         0.000029     -0.002411      0.000938
      3.44558      1.15376     17.47078         0.002906     -0.002507      0.001322
     13.72221      6.05516     18.33064         0.005933     -0.001002      0.001112
      3.69676      5.03116     18.39674         0.002581     -0.002845     -0.004901
      5.32908      2.66865     18.49707        -0.000713     -0.002700     -0.003633
     10.11222      0.20518     18.57234         0.000187      0.001516      0.000648
      7.02830      0.48297     18.56317         0.001800      0.000726     -0.002280
      2.16378      7.60643     18.70812         0.001782      0.000348      0.000616
      8.54148      2.95725     18.39327         0.002113     -0.004016     -0.000929
      6.79971      5.20744     18.34654         0.002095     -0.000405      0.001518
     11.46917      4.64799     18.70718        -0.001803     -0.001474      0.006052
     11.99962      8.31226     17.51001         0.001123     -0.003997      0.003498
      8.30445      7.38239     18.47390        -0.000379     -0.001541     -0.000406
      9.89808      5.91460     17.27873         0.000786     -0.000337      0.001639
    total drift:                                0.000276      0.002024     -0.047457

  FREE ENERGIE OF THE ION-ELECTRON SYSTEM (eV)
  free  energy   TOTEN  =      -655.41075379 eV

  energy  without entropy=     -655.40727197  energy(sigma->0) =     -655.40988334

 d Force = 0.2147857E-05[ 0.361E-05, 0.687E-06]  d Energy =-0.5883048E-05 0.803E-05
 d Force =-0.9349410E-01[-0.935E-01,-0.935E-01]  d Ewald  =-0.9349411E-01 0.320E-09

 reached required accuracy - stopping structural energy minimisation