 vasp.5.4.1 05Feb16 (build Mar 19 2020 08:54:17) complex

 executed on           IFC91_ompi date 2021.10.23  14:43:06

 INCAR:
 POTCAR:    PAW_PBE Al 04Jan2001
 POTCAR:    PAW_PBE Nb_sv 25May2007
 POTCAR:    PAW_PBE Ta 17Jan2003
 POTCAR:    PAW_PBE Ti 08Apr2002
 POTCAR:   PAW_PBE Zr 08Apr2002
 POTCAR:    PAW_PBE O 08Apr2002

 POTCAR:    PAW_PBE Al 04Jan2001
   VRHFIN =Al: s2p1

   TITEL  = PAW_PBE Al 04Jan2001
   POMASS =   26.981; ZVAL   =    3.000    mass and valenz
   ENMAX  =  240.300; ENMIN  =  180.225 eV

 POTCAR:    PAW_PBE Nb_sv 25May2007
   VRHFIN =Nb: 4p5s4d

   TITEL  = PAW_PBE Nb_sv 25May2007
   POMASS =   92.910; ZVAL   =   13.000    mass and valenz
   ENMAX  =  293.235; ENMIN  =  219.927 eV

 POTCAR:    PAW_PBE Ta 17Jan2003
   VRHFIN =Ta:  6s5d

   TITEL  = PAW_PBE Ta 17Jan2003
   POMASS =  180.948; ZVAL   =    5.000    mass and valenz
   ENMAX  =  223.667; ENMIN  =  167.750 eV

 POTCAR:    PAW_PBE Ti 08Apr2002
   VRHFIN =Ti: d3 s1

   TITEL  = PAW_PBE Ti 08Apr2002
   POMASS =   47.880; ZVAL   =    4.000    mass and valenz
   ENMAX  =  178.330; ENMIN  =  133.747 eV

 POTCAR:   PAW_PBE Zr 08Apr2002
   VRHFIN =Zr: 5s4d5p

   TITEL  = PAW_PBE Zr 08Apr2002
   POMASS =   91.224; ZVAL   =    4.000    mass and valenz
   ENMAX  =  154.632; ENMIN  =  115.974 eV
   QCUT   =   -3.371; QGAM   =    6.742    optimization parameters

   Description
     l     E      TYP  RCUT    TYP  RCUT
     2   .000     23  3.000
     2   .000     23  3.000
     0   .000     23  3.000
     0  2.000     23  3.000
     1  -.400     23  3.000
     3   .000      7   .000

 POTCAR:    PAW_PBE O 08Apr2002
   VRHFIN =O: s2p4

   TITEL  = PAW_PBE O 08Apr2002
   POMASS =   16.000; ZVAL   =    6.000    mass and valenz
   ENMAX  =  400.000; ENMIN  =  300.000 eV

 WARNING: PSMAXN for non-local potential too small
          PSMAXN should be >   12.5490833729506       NTYP=           5
  PAW_PBE Al 04Jan2001                  :
  PAW_PBE Nb_sv 25May2007               :
  PAW_PBE Ta 17Jan2003                  :
  PAW_PBE Ti 08Apr2002                  :
 PAW_PBE Zr 08Apr2002                   :
  PAW_PBE O 08Apr2002                   :

 POSCAR: Al Nb Ta Ti Zr
  positions in direct lattice
  velocities in cartesian coordinates
 exchange correlation table for  LEXCH =        8
   RHO(1)=    0.500       N(1)  =     2000
   RHO(2)=  100.500       N(2)  =     4000

 ion  position               nearest neighbor table
   1  0.623  0.867  0.376-  34 2.83  25 2.88  24 2.88   9 2.88  13 2.90   4 2.91  61 2.93  15 3.16
                            41 3.35  17 3.40
   2  0.624  0.388  0.548-  14 2.79  26 2.80  23 2.81  31 2.82  33 2.83  10 2.87   7 2.89  62 2.99
                            18 3.12   3 3.19  17 3.22  42 3.32
   3  0.615  0.629  0.627-  32 2.69  14 2.78   8 2.82  26 2.84  23 2.91  33 2.92  27 3.13   2 3.19
                            45 3.20
   4  0.618  0.084  0.450-  31 2.80  24 2.86  34 2.87  13 2.88   1 2.91  25 2.92   7 2.92  10 2.96
                            62 2.96  12 3.16  28 3.16  46 3.24
   5  0.981  0.636  0.550-  30 2.78  27 2.90  42 2.90  56 2.94  63 2.99  52 3.01  47 3.02  54 3.07
                            59 3.21  58 3.22  57 3.28
   6  0.980  0.121  0.378-  29 2.80  28 2.80  53 2.91  41 2.96  51 3.05  55 3.05  60 3.08  57 3.37

   7  0.729  0.343  0.458-  28 2.77  29 2.83  31 2.85  17 2.89   2 2.89  11 2.90   4 2.92  62 3.03
                            63 3.07  42 3.09
   8  0.727  0.876  0.623-  71 2.03  30 2.65  32 2.67  27 2.70  12 2.81   3 2.82  18 2.95  64 3.22
                            62 3.36
   9  0.517  0.608  0.367-  35 2.84  15 2.85  17 2.87   1 2.88  11 2.89  61 2.95  43 3.10
  10  0.514  0.135  0.541-  16 2.82  18 2.84   2 2.87  12 2.92  36 2.92   4 2.96  31 2.96  46 2.98
                            62 3.10  44 3.12
  11  0.618  0.343  0.369-  24 2.75  34 2.83  31 2.87   9 2.89   7 2.90  61 2.96  43 3.27
  12  0.619  0.871  0.537-  13 2.70  32 2.76  25 2.79  23 2.80   8 2.81  33 2.91  10 2.92  62 2.93
                             4 3.16  44 3.30
  13  0.742  0.843  0.462-  12 2.70  17 2.87   4 2.88   1 2.90  30 2.91  28 2.94  63 2.98  23 2.98
                            41 3.05  57 3.27  62 3.40
  14  0.747  0.410  0.627-  27 2.63   3 2.78  42 2.78   2 2.79  18 2.93  64 3.00  58 3.12
  15  0.394  0.847  0.369-  22 2.68  19 2.76  25 2.83  34 2.84   9 2.85  39 2.98   1 3.16  46 3.43

  16  0.390  0.369  0.546-  21 2.65  26 2.77  20 2.82  10 2.82  33 2.84  40 2.91  37 2.92  31 2.97

  17  0.619  0.602  0.458-  33 2.81  25 2.81  23 2.83  31 2.85   9 2.87  13 2.87   7 2.89  61 2.95
                            35 3.03   2 3.22   1 3.40  63 3.44
  18  0.631  0.153  0.625-  72 2.04  71 2.14  26 2.82  10 2.84  62 2.87  32 2.90  14 2.93   8 2.95
                             2 3.12  36 3.13  64 3.21
  19  0.279  0.834  0.451-  15 2.76  35 2.94  46 2.96  39 2.97  25 2.99  44 3.00  60 3.07  51 3.08
                            47 3.12  56 3.19  21 3.28
  20  0.281  0.353  0.631-  69 2.00  70 2.04  67 2.20  16 2.82  36 2.95  48 3.05  26 3.06  52 3.07
                            40 3.09  45 3.16  59 3.23
  21  0.281  0.596  0.537-  16 2.65  35 2.88  44 2.98  45 3.00  52 3.00  37 3.00  33 3.00  47 3.02
                            56 3.12  59 3.25  19 3.28
  22  0.283  0.077  0.361-  15 2.68  46 2.97  43 2.97  34 2.99  51 3.02  55 3.10  60 3.10
  23  0.737  0.632  0.541-  30 2.74  12 2.80   2 2.81  27 2.83  17 2.83   3 2.91  63 2.95  42 2.97
                            13 2.98
  24  0.740  0.115  0.366-  29 2.73  11 2.75  28 2.85   4 2.86   1 2.88  41 3.00
  25  0.496  0.836  0.458-  35 2.78  12 2.79  17 2.81  15 2.83   1 2.88   4 2.92  44 2.94  19 2.99
                            46 2.99  33 3.04
  26  0.502  0.381  0.629-  70 1.93  16 2.77   2 2.80  18 2.82   3 2.84  36 2.96  45 3.03  20 3.06

  27  0.842  0.649  0.628-  68 2.15  14 2.63   8 2.70  58 2.74  23 2.83   5 2.90  30 2.96  54 3.02
                             3 3.13  42 3.43
  28  0.847  0.110  0.455-  62 2.73   7 2.77   6 2.80  24 2.85  57 2.90  13 2.94  53 2.98  29 3.15
                             4 3.16  50 3.18  41 3.36
  29  0.852  0.349  0.376-  24 2.73   6 2.80   7 2.83  53 2.94  61 2.98  49 3.07  28 3.15  63 3.25

  30  0.854  0.862  0.551-   8 2.65  23 2.74   5 2.78  54 2.86  13 2.91  57 2.94  27 2.96  62 2.99
                            50 3.10
  31  0.522  0.339  0.461-   4 2.80   2 2.82  17 2.85   7 2.85  35 2.86  11 2.87  46 2.95  10 2.96
                            16 2.97  43 3.11
  32  0.533  0.885  0.627-  72 1.96  65 2.05   8 2.67   3 2.69  36 2.73  12 2.76  18 2.90  45 3.07
                            44 3.08
  33  0.498  0.621  0.539-  35 2.80  17 2.81   2 2.83  16 2.84  44 2.91  12 2.91   3 2.92  45 2.99
                            21 3.00  25 3.04
  34  0.499  0.102  0.365-  11 2.83   1 2.83  15 2.84   4 2.87  43 2.91  46 2.98  22 2.99
  35  0.400  0.580  0.451-  25 2.78  33 2.80   9 2.84  31 2.86  21 2.88  37 2.88  39 2.93  19 2.94
                            17 3.03  43 3.08
  36  0.407  0.104  0.632-  72 1.99  70 2.04  67 2.06  65 2.16  32 2.73  10 2.92  20 2.95  26 2.96
                            38 2.97  18 3.13  40 3.14  44 3.27
  37  0.255  0.366  0.464-  35 2.88  16 2.92  21 3.00  47 3.02  60 3.04  43 3.05  55 3.08  46 3.08
                            52 3.17  40 3.21  39 3.39
  38  0.240  0.909  0.625-  65 2.03  67 2.11  56 2.77  44 2.93  36 2.97  59 2.99  40 3.03  48 3.11
                            45 3.19  54 3.35
  39  0.252  0.614  0.376-  35 2.93  19 2.97  15 2.98  47 3.07  43 3.07  51 3.07  55 3.08  37 3.39
                            49 3.53
  40  0.253  0.138  0.549-  67 2.39  16 2.91  38 3.03  52 3.06  20 3.09  44 3.09  60 3.12  36 3.14
                            46 3.17  37 3.21  48 3.22  56 3.23  50 3.58
  41  0.865  0.859  0.370-   6 2.96  24 3.00  61 3.05  13 3.05  57 3.06  49 3.12   1 3.35  28 3.36
                            51 3.49  63 3.53
  42  0.865  0.383  0.546-  14 2.78   5 2.90  23 2.97  62 3.03  58 3.09   7 3.09  50 3.11  63 3.15
                            53 3.21   2 3.32  27 3.43  64 3.46  52 3.52
  43  0.381  0.352  0.373-  34 2.91  22 2.97  37 3.05  39 3.07  35 3.08   9 3.10  31 3.11  55 3.26
                            11 3.27  46 3.29
  44  0.380  0.872  0.546-  65 2.35  33 2.91  38 2.93  25 2.94  21 2.98  19 3.00  32 3.08  40 3.09
                            10 3.12  45 3.17  36 3.27  12 3.30  46 3.34  56 3.37
  45  0.383  0.648  0.630-  69 2.13  65 2.23  33 2.99  21 3.00  26 3.03  32 3.07  20 3.16  44 3.17
                            38 3.19   3 3.20  59 3.28
  46  0.384  0.104  0.456-  31 2.95  19 2.96  22 2.97  10 2.98  34 2.98  25 2.99  37 3.08  40 3.17
                             4 3.24  60 3.27  43 3.29  44 3.34  15 3.43
  47  0.117  0.611  0.465-  21 3.02   5 3.02  37 3.02  39 3.07  56 3.11  19 3.12  53 3.14  49 3.15
                            57 3.17  52 3.27  63 3.42  51 3.52  55 3.80
  48  0.102  0.165  0.638-  66 2.08  67 2.19  50 3.04  20 3.05  38 3.11  58 3.15  52 3.15  54 3.17
                            40 3.22  64 3.30
  49  0.996  0.593  0.368-  63 3.05  29 3.07  41 3.12  47 3.15  51 3.16  55 3.23  53 3.44  39 3.53
                            61 3.65  57 3.82
  50  0.993  0.115  0.543-  48 3.04  30 3.10  42 3.11  57 3.15  28 3.18  52 3.20  56 3.23  53 3.24
                            54 3.25  64 3.25  60 3.33  62 3.51  40 3.58
  51  0.119  0.872  0.375-  60 3.00  22 3.02   6 3.05  39 3.07  19 3.08  57 3.16  49 3.16  41 3.49
                            47 3.52
  52  0.120  0.394  0.556-  21 3.00   5 3.01  40 3.06  20 3.07  59 3.10  48 3.15  37 3.17  58 3.18
                            50 3.20  47 3.27  53 3.35  42 3.52
  53  1.000  0.331  0.453-   6 2.91  29 2.94  28 2.98  60 3.06  63 3.08  55 3.09  47 3.14  42 3.21
                            50 3.24  52 3.35  49 3.44
  54  0.998  0.871  0.625-  68 2.20  30 2.86  56 3.01  27 3.02   5 3.07  59 3.09  48 3.17  50 3.25
                            64 3.26  38 3.35
  55  0.145  0.332  0.368-   6 3.05  37 3.08  39 3.08  53 3.09  22 3.10  49 3.23  60 3.24  43 3.26
                            47 3.80
  56  0.136  0.846  0.541-  38 2.77   5 2.94  54 3.01  57 3.03  47 3.11  21 3.12  19 3.19  40 3.23
                            50 3.23  59 3.26  44 3.37  60 3.44
  57  0.979  0.876  0.465-  28 2.90  30 2.94  56 3.03  41 3.06  63 3.11  60 3.13  50 3.15  51 3.16
                            47 3.17  13 3.27   5 3.28   6 3.37  49 3.82
  58  0.971  0.434  0.643-  66 2.09  68 2.19  27 2.74  59 3.05  42 3.09  14 3.12  64 3.13  48 3.15
                            52 3.18   5 3.22
  59  0.145  0.629  0.632-  69 2.13  68 2.28  38 2.99  58 3.05  54 3.09  52 3.10   5 3.21  20 3.23
                            21 3.25  56 3.26  45 3.28
  60  0.147  0.092  0.451-  51 3.00  37 3.04  53 3.06  19 3.07   6 3.08  22 3.10  40 3.12  57 3.13
                            55 3.24  46 3.27  50 3.33  56 3.44
  61  0.731  0.606  0.367-   1 2.93  17 2.95   9 2.95  11 2.96  29 2.98  41 3.05  63 3.17  49 3.65

  62  0.739  0.124  0.537-  28 2.73  18 2.87  12 2.93   4 2.96  30 2.99   2 2.99  42 3.03   7 3.03
                            10 3.10  64 3.33   8 3.36  13 3.40  50 3.51
[...]

 VOLUME and BASIS-vectors are now :
  energy-cutoff  :      600.00
  volume of cell :     3643.60
      direct lattice vectors                 reciprocal lattice vectors
    13.771350861  0.000000000  0.000000000     0.072614518  0.000000000  0.000000000
     0.000000000  9.564481735  0.000000000     0.000000000  0.104553496  0.000000000
     0.000000000  0.000000000 27.662570434     0.000000000  0.000000000  0.036149931

  length of vectors
    13.771350861  9.564481735 27.662570434     0.072614518  0.104553496  0.036149931

 FORCES acting on ions
    electron-ion (+dipol)            ewald-force                    non-local-force                 convergence-correction
   -.475E+02 -.338E+02 0.411E+03   0.473E+02 0.336E+02 -.410E+03   0.866E-01 0.811E-01 -.813E+00   -.145E-01 -.248E-01 -.522E-02
   -.239E+02 -.387E+02 -.846E+02   0.241E+02 0.385E+02 0.848E+02   -.184E+00 0.259E+00 -.172E+00   0.146E-01 0.708E-02 -.328E-01
   0.302E+02 0.278E+02 -.350E+03   -.299E+02 -.274E+02 0.349E+03   -.314E+00 -.429E+00 0.974E+00   0.186E-01 0.554E-02 -.149E-01
   0.656E+00 0.461E+01 0.236E+03   -.668E+00 -.443E+01 -.235E+03   -.218E-01 -.271E+00 -.734E+00   -.873E-02 -.586E-02 -.552E-02
   -.582E+02 0.655E+01 -.423E+02   0.579E+02 -.626E+01 0.420E+02   0.316E+00 -.292E+00 0.378E+00   -.930E-02 0.356E-02 -.329E-01
   -.458E+02 0.456E+01 0.354E+03   0.450E+02 -.393E+01 -.351E+03   0.649E+00 -.102E+01 -.227E+01   0.343E-01 -.528E-02 -.125E-02
   -.379E+03 -.891E+01 0.625E+03   0.378E+03 0.959E+01 -.627E+03   0.177E+00 -.296E+00 0.946E+00   0.316E-01 0.681E-01 -.269E-01
   -.299E+03 0.230E+03 -.138E+04   0.298E+03 -.229E+03 0.137E+04   0.965E+00 -.117E+01 0.301E+01   0.909E-01 -.249E-01 -.873E-01
   0.988E+02 -.746E+01 0.176E+04   -.984E+02 0.639E+01 -.175E+04   -.509E+00 0.645E+00 -.431E+01   -.591E-01 0.336E-03 -.417E-01
   0.141E+03 -.136E+02 -.127E+03   -.141E+03 0.138E+02 0.129E+03   0.186E+00 -.257E+00 -.111E+01   0.131E-01 -.698E-02 -.153E+00
   -.558E+02 0.137E+03 0.183E+04   0.567E+02 -.137E+03 -.182E+04   -.520E+00 -.419E+00 -.276E+01   -.105E+00 0.128E+00 -.270E-01
   0.675E+02 0.133E+03 -.169E+03   -.668E+02 -.133E+03 0.170E+03   -.831E+00 0.525E+00 -.954E-01   0.797E-01 -.317E-01 -.137E+00
   -.420E+03 0.149E+01 0.903E+03   0.421E+03 -.253E+01 -.901E+03   -.768E+00 0.132E+01 -.154E+01   0.629E-01 -.636E-01 -.375E-01
   -.143E+03 -.596E+02 -.137E+04   0.144E+03 0.586E+02 0.137E+04   -.886E+00 0.962E+00 0.297E+01   0.665E-01 0.304E-01 -.740E-01
   0.296E+03 -.115E+03 0.167E+04   -.296E+03 0.115E+03 -.166E+04   0.271E+00 -.385E+00 -.419E+01   -.792E-01 -.213E-01 -.499E-01
   0.333E+03 -.159E+03 -.181E+03   -.333E+03 0.159E+03 0.182E+03   0.123E+00 -.557E-01 -.529E+00   -.431E-01 -.806E-02 -.183E+00
   -.154E+02 0.471E+01 0.247E+03   0.149E+02 -.462E+01 -.247E+03   0.550E+00 -.306E+00 0.649E-01   0.101E-01 0.671E-02 -.404E-01
   -.520E+02 -.111E+03 -.511E+03   0.515E+02 0.110E+03 0.510E+03   0.504E+00 0.237E+00 0.150E+01   0.276E-01 -.963E-02 -.185E-01
   0.174E+03 -.473E+01 0.239E+03   -.173E+03 0.460E+01 -.240E+03   -.145E+01 0.620E+00 0.375E+00   -.195E-01 -.147E-02 -.707E-01
   0.174E+03 -.377E+02 -.479E+03   -.173E+03 0.391E+02 0.476E+03   -.117E+01 -.138E+01 0.264E+01   -.229E-01 -.208E-02 -.147E-01
   0.131E+03 -.553E+02 -.330E+02   -.131E+03 0.554E+02 0.328E+02   -.250E+00 -.531E-01 0.179E+00   -.172E-01 -.438E-02 -.586E-01
   0.117E+03 -.556E+02 0.508E+03   -.116E+03 0.557E+02 -.505E+03   -.824E+00 -.251E+00 -.267E+01   -.157E-01 0.501E-03 -.821E-02
   -.997E+02 0.667E+02 -.814E+02   0.996E+02 -.663E+02 0.815E+02   0.878E-01 -.396E+00 -.364E-01   0.220E-01 0.806E-02 -.380E-01
   -.100E+03 0.595E+02 0.561E+03   0.997E+02 -.590E+02 -.558E+03   0.462E+00 -.550E+00 -.277E+01   0.341E-02 -.891E-02 -.413E-02
   0.774E+02 -.117E+02 0.221E+03   -.784E+02 0.111E+02 -.221E+03   0.957E+00 0.810E+00 -.447E+00   -.877E-02 -.747E-02 -.431E-01
   -.506E+02 -.102E+03 -.449E+03   0.505E+02 0.101E+03 0.447E+03   0.878E-01 0.432E+00 0.209E+01   0.391E-02 0.137E-02 -.116E-01
   -.737E+02 0.322E+01 -.406E+03   0.732E+02 -.312E+01 0.403E+03   0.502E+00 -.106E+00 0.284E+01   0.612E-02 0.764E-02 -.279E-01
   -.164E+03 0.623E+01 0.243E+03   0.163E+03 -.602E+01 -.244E+03   0.181E+00 -.374E+00 0.393E+00   0.315E-01 -.971E-02 0.558E-02
   -.150E+03 -.574E+01 0.519E+03   0.149E+03 0.564E+01 -.516E+03   0.723E+00 -.503E-01 -.259E+01   0.371E-01 0.382E-01 0.393E-03
   -.194E+03 -.567E+01 -.839E+02   0.193E+03 0.565E+01 0.838E+02   0.953E+00 0.325E-01 0.109E+00   0.707E-02 -.834E-02 -.376E-01
   0.811E+02 -.870E+00 0.227E+03   -.813E+02 0.124E+01 -.227E+03   0.924E-01 -.571E-01 -.160E+00   -.114E-01 0.887E-02 -.394E-01
   0.424E+02 0.118E+03 -.454E+03   -.422E+02 -.118E+03 0.452E+03   -.308E+00 0.570E-01 0.169E+01   0.145E-01 -.385E-02 -.127E-01
   0.531E+02 0.183E+01 -.901E+02   -.537E+02 -.164E+01 0.897E+02   0.567E+00 -.194E+00 0.440E+00   0.130E-01 0.214E-02 -.511E-01
   0.348E+02 -.140E+01 0.541E+03   -.354E+02 0.133E+01 -.538E+03   0.609E+00 0.684E-01 -.246E+01   -.433E-01 -.231E-02 -.115E-01
   0.128E+03 0.111E+02 0.215E+03   -.128E+03 -.114E+02 -.215E+03   -.887E+00 0.570E+00 -.455E+00   -.140E-01 -.193E-03 -.554E-01
   0.803E+02 0.226E+02 -.419E+03   -.788E+02 -.211E+02 0.418E+03   -.152E+01 -.155E+01 0.158E+01   -.257E-02 0.645E-03 -.701E-02
   0.127E+03 0.613E+01 0.241E+03   -.127E+03 -.594E+01 -.240E+03   0.533E-01 -.330E+00 -.591E+00   -.167E-01 0.213E-03 -.581E-01
   0.144E+03 0.626E+02 -.368E+03   -.145E+03 -.635E+02 0.366E+03   0.148E+01 0.974E+00 0.191E+01   -.154E-01 0.233E-02 -.150E-01
   0.126E+03 0.396E+02 0.468E+03   -.126E+03 -.394E+02 -.465E+03   0.124E+00 -.428E+00 -.270E+01   -.124E-01 -.252E-02 -.156E-01
   0.148E+03 0.373E+02 -.201E+02   -.148E+03 -.366E+02 0.200E+02   -.284E+00 -.632E+00 0.174E+00   -.166E-01 0.550E-02 -.525E-01
   -.987E+02 -.101E+01 0.526E+03   0.989E+02 0.103E+01 -.523E+03   -.481E+00 0.537E-01 -.310E+01   0.349E-01 -.324E-01 0.657E-03
   -.145E+03 0.438E+01 -.581E+02   0.145E+03 -.431E+01 0.587E+02   0.409E+00 -.772E-01 -.545E+00   0.992E-02 0.897E-02 -.383E-01
   0.130E+03 0.282E+02 0.495E+03   -.129E+03 -.285E+02 -.492E+03   -.239E+00 0.338E+00 -.248E+01   -.265E-01 0.626E-02 -.157E-01
   0.139E+03 0.409E+02 -.436E+02   -.138E+03 -.407E+02 0.430E+02   -.633E+00 -.153E+00 0.700E+00   -.433E-02 0.102E-02 -.535E-01
   0.158E+02 -.402E+01 -.418E+03   -.166E+02 0.352E+01 0.415E+03   0.792E+00 0.504E+00 0.302E+01   -.467E-02 0.113E-03 -.819E-02
   0.125E+03 -.614E+01 0.260E+03   -.125E+03 0.584E+01 -.261E+03   0.451E+00 0.297E+00 -.133E+00   -.217E-01 0.679E-03 -.491E-01
   0.365E+02 0.355E+01 0.197E+03   -.362E+02 -.347E+01 -.198E+03   -.121E+00 -.193E+00 0.753E-01   -.910E-02 -.130E-02 -.535E-01
   0.296E+02 0.291E+02 -.373E+03   -.309E+02 -.283E+02 0.371E+03   0.141E+01 -.758E+00 0.229E+01   -.144E-01 0.383E-02 -.146E-01
   -.408E+02 0.431E-02 0.480E+03   0.410E+02 0.380E+00 -.476E+03   -.614E-01 -.269E+00 -.278E+01   0.221E-01 0.825E-02 -.166E-02
   -.614E+02 -.322E+01 -.506E+02   0.613E+02 0.278E+01 0.509E+02   0.930E-01 0.443E+00 -.338E+00   -.505E-02 -.420E-02 -.424E-01
   0.519E+02 -.285E+01 0.461E+03   -.519E+02 0.220E+01 -.457E+03   0.290E-01 0.211E+00 -.307E+01   0.630E-02 -.752E-02 -.930E-02
   0.576E+02 -.523E+01 -.753E+02   -.572E+02 0.495E+01 0.761E+02   -.405E+00 0.277E+00 -.727E+00   -.148E-01 -.783E-03 -.468E-01
   -.699E+02 -.350E+01 0.228E+03   0.700E+02 0.368E+01 -.228E+03   0.127E+00 0.254E+00 0.274E+00   0.188E-01 0.834E-02 -.289E-01
   -.622E+02 -.430E+02 -.352E+03   0.630E+02 0.423E+02 0.350E+03   -.794E+00 0.705E+00 0.237E+01   -.178E-01 -.285E-02 -.255E-01
   0.408E+02 0.862E+00 0.475E+03   -.401E+02 -.735E+00 -.471E+03   -.857E+00 -.299E+00 -.330E+01   0.105E-01 0.687E-02 -.520E-02
   0.397E+02 0.407E+00 -.418E+02   -.392E+02 -.334E+00 0.423E+02   -.446E+00 -.713E-01 -.404E+00   -.231E-01 -.766E-03 -.551E-01
   -.944E+02 0.169E+00 0.203E+03   0.941E+02 -.332E+00 -.203E+03   0.501E+00 0.269E+00 0.156E+00   0.630E-02 -.902E-02 -.320E-01
   -.590E+02 -.585E+01 -.393E+03   0.580E+02 0.480E+01 0.391E+03   0.967E+00 0.105E+01 0.213E+01   -.318E-02 0.271E-02 -.158E-01
   0.347E+02 -.318E+02 -.352E+03   -.337E+02 0.319E+02 0.350E+03   -.984E+00 -.981E-01 0.230E+01   -.199E-01 -.574E-02 -.144E-01
   0.529E+02 -.626E+01 0.235E+03   -.522E+02 0.619E+01 -.235E+03   -.724E+00 0.440E+00 -.127E+00   -.243E-02 0.102E-02 -.465E-01
   -.141E+03 -.427E+02 0.557E+03   0.140E+03 0.420E+02 -.553E+03   0.857E+00 0.576E-01 -.326E+01   0.468E-02 0.776E-02 -.369E-02
   -.149E+03 -.440E+02 -.548E+02   0.148E+03 0.437E+02 0.554E+02   0.483E+00 0.340E+00 -.552E+00   0.206E-01 -.779E-02 -.317E-01
   -.156E+03 0.547E+01 0.229E+03   0.155E+03 -.551E+01 -.230E+03   0.656E+00 0.310E+00 0.457E-01   0.152E-01 0.104E-01 -.238E-01
   -.117E+03 0.284E+01 -.395E+03   0.116E+03 -.240E+01 0.394E+03   0.308E+00 -.443E+00 0.166E+01   0.850E-02 -.568E-02 -.162E-01
   0.135E+03 0.111E+03 -.660E+03   -.135E+03 -.111E+03 0.667E+03   0.141E+00 0.352E+00 -.648E+01   0.680E-02 -.139E-02 -.952E-02
   -.601E+02 0.182E+02 -.806E+03   0.601E+02 -.198E+02 0.821E+03   0.131E-01 0.156E+01 -.148E+02   -.617E-02 0.333E-02 0.184E-02
   0.192E+03 0.472E+02 -.643E+03   -.193E+03 -.496E+02 0.650E+03   0.896E+00 0.245E+01 -.697E+01   -.293E-01 0.257E-01 -.148E-01
   -.742E+02 -.280E+02 -.727E+03   0.739E+02 0.303E+02 0.736E+03   0.251E+00 -.226E+01 -.866E+01   -.191E-01 0.293E-02 -.221E-01
   0.902E+02 -.754E+02 -.814E+03   -.910E+02 0.793E+02 0.830E+03   0.822E+00 -.385E+01 -.166E+02   -.259E-01 -.307E-02 0.188E-01
   0.311E+02 -.636E+02 -.929E+03   -.271E+02 0.627E+02 0.948E+03   -.397E+01 0.930E+00 -.192E+02   -.245E-01 -.192E-02 0.303E-01
   -.136E+03 -.922E+02 -.969E+03   0.134E+03 0.915E+02 0.987E+03   0.117E+01 0.685E+00 -.183E+02   0.232E-01 -.563E-02 -.122E-01
   0.280E+02 0.109E+02 -.967E+03   -.284E+02 -.101E+02 0.987E+03   0.427E+00 -.802E+00 -.204E+02   0.797E-02 -.107E-02 0.382E-01
   -.106E+01 0.135E+01 0.129E+03   0.306E-12 0.149E-12 0.227E-12   0.107E+01 -.140E+01 -.126E+03   -.228E-01 0.791E-01 -.220E+01

 POSITION                                       TOTAL-FORCE (eV/Angst)
      8.57631      8.29685     10.39845        -0.068983     -0.145521      0.005835
      8.59466      3.71490     15.14677         0.000762     -0.002364      0.003265
      8.47294      6.01847     17.34483         0.000971     -0.003618      0.004755
      8.51616      0.79995     12.43874        -0.042638     -0.100059     -0.191600
     13.50548      6.08601     15.21054        -0.001341     -0.000804      0.002426
     13.49094      1.15316     10.44749        -0.043616     -0.400627     -0.043318
     10.03344      3.28428     12.67411        -0.072460      0.451011     -0.584768
     10.01156      8.38176     17.23874        -0.000159      0.007807      0.004472
      7.12524      5.81577     10.15765        -0.146849     -0.431507      0.937761
      7.07437      1.29167     14.97279        -0.002357      0.000246     -0.001089
      8.51222      3.28036     10.20450         0.304775      0.009079      0.779356
      8.52425      8.32927     14.86056         0.000749     -0.000344     -0.002379
     10.22263      8.06723     12.77991         0.185733      0.212434     -0.429193
     10.29030      3.91988     17.35092         0.000590      0.000613     -0.000839
      5.42664      8.10481     10.20639         0.286111      0.039998      0.924995
      5.37033      3.53346     15.09095         0.001603      0.000562     -0.000740
      8.52843      5.75423     12.65640         0.047864     -0.212802     -0.140166
      8.69797      1.45770     17.30072        -0.005449      0.002937     -0.002213
      3.84829      7.97317     12.47259        -0.483313      0.483556     -0.612535
      3.86305      3.37455     17.46248         0.003950     -0.003830     -0.000419
      3.86965      5.70065     14.84047         0.001381     -0.000411      0.000943
      3.90063      0.73891     10.00000         0.492184     -0.192158      0.363546
     10.14595      6.04606     14.96350         0.000336     -0.000185      0.001213
     10.19112      1.10470     10.13736        -0.214739     -0.006927      0.336260
      6.82945      7.99424     12.66670        -0.044779      0.234963     -0.417222
      6.91082      3.64752     17.38821         0.003649     -0.003271     -0.000984
     11.59647      6.20738     17.38559         0.000963     -0.005262      0.004823
     11.66772      1.05372     12.57547        -0.182491     -0.170485     -0.676073
     11.73919      3.33868     10.41199        -0.277537     -0.113276      0.556068
     11.75504      8.24653     15.24217        -0.000643      0.001413     -0.001971
      7.18522      3.24644     12.75390        -0.121074      0.323684     -0.444609
      7.34389      8.46226     17.34966         0.001340     -0.006408     -0.006149
      6.86449      5.94063     14.90981         0.000666     -0.002092      0.002417
      6.87795      0.97560     10.08695        -0.051570     -0.006241      0.177882
      5.51084      5.55012     12.48419        -0.132056      0.334914     -0.355729
      5.60892      0.99610     17.48306         0.002370     -0.005125     -0.004868
      3.51249      3.50019     12.83519        -0.017416     -0.142288     -0.189181
      3.29763      8.69723     17.27756         0.004836     -0.002741     -0.001292
      3.46798      5.87237     10.40868         0.050106     -0.234589     -0.058408
      3.48437      1.31961     15.19410         0.000580     -0.003044      0.001206
     11.91771      8.21633     10.24534        -0.208237      0.037005      0.643682
     11.91144      3.66018     15.10170         0.001758      0.000657      0.001464
      5.24135      3.36543     10.32679         0.143818      0.089650      0.167909
      5.22994      8.33951     15.10618        -0.000160     -0.002064      0.004366
      5.27815      6.19621     17.43800         0.001524      0.001482     -0.003209
      5.28930      0.99064     12.60849         0.178790      0.004941     -0.348566
      1.60538      5.84491     12.85122         0.146477     -0.107070     -0.570999
      1.40226      1.57748     17.63729         0.003767     -0.004255     -0.002442
     13.72038      5.67134     10.18293         0.172916      0.123315      0.658808
     13.68064      1.10053     15.03318         0.000705     -0.000352      0.000129
      1.63456      8.33987     10.36453         0.030330     -0.447692      0.163930
      1.64761      3.76424     15.37986        -0.000243     -0.000137      0.002035
     13.76831      3.16119     12.53308         0.161068      0.440853     -0.226352
     13.74189      8.33294     17.29442         0.000516     -0.000737      0.001313
      1.99440      3.17314     10.17666        -0.118495     -0.165795      0.644077
      1.87245      8.09567     14.97460         0.000590      0.000110      0.003399
     13.48051      8.37930     12.86886         0.172061      0.097139     -0.301337
     13.37166      4.15245     17.77943        -0.000674      0.002704     -0.001431
      2.00306      6.01386     17.48205        -0.001153      0.000785     -0.000083
      2.02729      0.87737     12.46815         0.004358      0.363636     -0.408936
     10.07171      5.79402     10.14663         0.129136     -0.609001      0.171454
     10.17363      1.19107     14.86153         0.002568     -0.001183     -0.000819
     11.97051      5.66181     12.67660        -0.316529      0.283049     -0.554920
     11.87606      1.40157     17.72136        -0.000464     -0.005373      0.001297
      5.29874      8.42183     17.45487         0.000032     -0.000912     -0.000713
     13.53946      2.28549     18.71407         0.002591     -0.001050      0.004413
      3.55762      1.20221     17.57971        -0.000091     -0.000175      0.000306
     13.61222      6.30278     18.13142        -0.000271     -0.000822      0.001345
      3.70614      5.13008     18.40145        -0.000175     -0.001713      0.002596
      5.54806      2.78982     18.45623        -0.001514      0.000755      0.000838
     10.19528      0.44321     18.43983         0.007989     -0.004610      0.002604
      7.28500      0.52990     18.44079         0.004962     -0.000380      0.002364
    total drift:                               -0.018108      0.028059      0.001723

  FREE ENERGIE OF THE ION-ELECTRON SYSTEM (eV)
  free  energy   TOTEN  =      -588.15085073 eV

  energy  without entropy=     -588.15092499  energy(sigma->0) =     -588.15086930

 d Force = 0.6419760E-05[-0.230E-05, 0.151E-04]  d Energy = 0.3646138E-04-0.300E-04
 d Force = 0.4793896E-01[ 0.479E-01, 0.479E-01]  d Ewald  = 0.4793896E-01 0.125E-08

 reached required accuracy - stopping structural energy minimisation