 vasp.5.4.4.18Apr17-6-g9f103f2a35 (build Jan 21 2021 13:12:21) complex

 executed on             LinuxIFC date 2021.10.31  20:41:54

 INCAR:
 POTCAR:    PAW_PBE Al 04Jan2001
 POTCAR:    PAW_PBE Nb_sv 25May2007
 POTCAR:    PAW_PBE Ta 17Jan2003
 POTCAR:    PAW_PBE Ti 08Apr2002
 POTCAR:   PAW_PBE Zr 08Apr2002
 POTCAR:    PAW_PBE O 08Apr2002

 POTCAR:    PAW_PBE Al 04Jan2001
   VRHFIN =Al: s2p1

   TITEL  = PAW_PBE Al 04Jan2001
   POMASS =   26.981; ZVAL   =    3.000    mass and valenz
   ENMAX  =  240.300; ENMIN  =  180.225 eV

 POTCAR:    PAW_PBE Nb_sv 25May2007
   VRHFIN =Nb: 4p5s4d

   TITEL  = PAW_PBE Nb_sv 25May2007
   POMASS =   92.910; ZVAL   =   13.000    mass and valenz
   ENMAX  =  293.235; ENMIN  =  219.927 eV

 POTCAR:    PAW_PBE Ta 17Jan2003
   VRHFIN =Ta:  6s5d

   TITEL  = PAW_PBE Ta 17Jan2003
   POMASS =  180.948; ZVAL   =    5.000    mass and valenz
   ENMAX  =  223.667; ENMIN  =  167.750 eV

 POTCAR:    PAW_PBE Ti 08Apr2002
   VRHFIN =Ti: d3 s1

   TITEL  = PAW_PBE Ti 08Apr2002
   POMASS =   47.880; ZVAL   =    4.000    mass and valenz
   ENMAX  =  178.330; ENMIN  =  133.747 eV

 POTCAR:   PAW_PBE Zr 08Apr2002
   VRHFIN =Zr: 5s4d5p

   TITEL  = PAW_PBE Zr 08Apr2002
   POMASS =   91.224; ZVAL   =    4.000    mass and valenz
   ENMAX  =  154.632; ENMIN  =  115.974 eV
   QCUT   =   -3.371; QGAM   =    6.742    optimization parameters

   Description
     l     E      TYP  RCUT    TYP  RCUT
     2   .000     23  3.000
     2   .000     23  3.000
     0   .000     23  3.000
     0  2.000     23  3.000
     1  -.400     23  3.000
     3   .000      7   .000

 POTCAR:    PAW_PBE O 08Apr2002
   VRHFIN =O: s2p4

   TITEL  = PAW_PBE O 08Apr2002
   POMASS =   16.000; ZVAL   =    6.000    mass and valenz
   ENMAX  =  400.000; ENMIN  =  300.000 eV

 WARNING: PSMAXN for non-local potential too small
          PSMAXN should be >   12.5490833729506       NTYP=           5
  PAW_PBE Al 04Jan2001                  :
  PAW_PBE Nb_sv 25May2007               :
  PAW_PBE Ta 17Jan2003                  :
  PAW_PBE Ti 08Apr2002                  :
 PAW_PBE Zr 08Apr2002                   :
  PAW_PBE O 08Apr2002                   :

 POSCAR: F   F   FAl Nb Ta Ti Zr
  positions in direct lattice
  velocities in cartesian coordinates
 exchange correlation table for  LEXCH =        8
   RHO(1)=    0.500       N(1)  =     2000
   RHO(2)=  100.500       N(2)  =     4000

 ion  position               nearest neighbor table
   1  0.623  0.867  0.376-  34 2.83  25 2.88  24 2.88   9 2.88  13 2.90   4 2.91  61 2.93  15 3.16
                            41 3.35  17 3.40
   2  0.622  0.390  0.546-  31 2.76  14 2.76  23 2.77  26 2.77  33 2.81   7 2.86  10 2.88  62 2.97
                            18 3.05  16 3.15  17 3.17  42 3.34   3 3.34
   3  0.616  0.644  0.628-  32 2.73  14 2.84  23 2.90  33 2.91   8 2.91  27 2.96  26 2.97  45 3.16
                             2 3.34
   4  0.618  0.084  0.450-  31 2.80  24 2.86  34 2.87  13 2.88   1 2.91  10 2.91  25 2.92   7 2.92
                            62 2.99  12 3.13  28 3.16  46 3.24
   5  0.978  0.641  0.555-  30 2.76  27 2.81  42 2.93  56 2.96  54 2.97  52 3.00  59 3.03  58 3.07
                            63 3.10  47 3.15  57 3.34
   6  0.980  0.121  0.378-  29 2.80  28 2.80  53 2.91  41 2.96  51 3.05  55 3.05  60 3.08  57 3.37

   7  0.729  0.343  0.458-  28 2.77  29 2.83  31 2.85   2 2.86  17 2.89  11 2.90   4 2.92  62 3.02
                            63 3.07  42 3.07
   8  0.726  0.904  0.620-  30 2.62  32 2.72  12 2.73  27 2.74  18 2.80   3 2.91  64 3.09  62 3.13

   9  0.517  0.608  0.367-  35 2.84  15 2.85  17 2.87   1 2.88  11 2.89  61 2.95  43 3.10
  10  0.515  0.132  0.540-  18 2.78  36 2.78  16 2.81  12 2.86   2 2.88   4 2.91  31 2.95  46 2.96
                            62 3.08  44 3.14
  11  0.618  0.343  0.369-  24 2.75  34 2.83  31 2.87   9 2.89   7 2.90  61 2.96  43 3.27
  12  0.621  0.875  0.537-  13 2.68  32 2.70   8 2.73  23 2.79  25 2.80  10 2.86  33 2.92  62 2.92
                             4 3.13  44 3.39
  13  0.742  0.843  0.462-  12 2.68  17 2.87  30 2.87   4 2.88   1 2.90  28 2.94  63 2.98  23 2.98
                            41 3.05  57 3.27  62 3.45
  14  0.741  0.408  0.626-  27 2.72   2 2.76  42 2.81  18 2.82   3 2.84  64 2.98  58 3.12
  15  0.394  0.847  0.369-  22 2.68  19 2.76  25 2.83  34 2.84   9 2.85  39 2.98   1 3.16  46 3.43

  16  0.394  0.368  0.542-  21 2.64  20 2.65  26 2.72  10 2.81  33 2.85  31 2.87  37 2.89  40 3.02
                             2 3.15
  17  0.619  0.602  0.458-  23 2.80  25 2.81  33 2.84  31 2.85   9 2.87  13 2.87   7 2.89  61 2.95
                            35 3.03   2 3.17   1 3.40  63 3.44
  18  0.629  0.162  0.622-  26 2.77  10 2.78  62 2.80   8 2.80  14 2.82  32 2.85   2 3.05  36 3.18
                            64 3.27
  19  0.279  0.834  0.451-  15 2.76  35 2.94  46 2.96  39 2.97  25 2.99  44 3.00  60 3.07  51 3.08
                            47 3.12  56 3.20
  20  0.283  0.372  0.621-  67 2.26  16 2.65  36 2.89  26 2.99  21 3.02  52 3.02  40 3.05  45 3.07
                            59 3.07  48 3.15
  21  0.281  0.591  0.542-  16 2.64  59 2.87  45 2.93  52 2.99  35 3.00  44 3.00  20 3.02  33 3.03
                            37 3.06  47 3.12  56 3.16
  22  0.283  0.077  0.361-  15 2.68  46 2.97  43 2.97  34 2.99  51 3.02  55 3.10  60 3.10
  23  0.732  0.632  0.541-  27 2.69   2 2.77  30 2.77  12 2.79  17 2.80   3 2.90  13 2.98  42 2.99
                            63 2.99
  24  0.740  0.115  0.366-  29 2.73  11 2.75  28 2.85   4 2.86   1 2.88  41 3.00
  25  0.496  0.836  0.458-  35 2.78  12 2.80  17 2.81  15 2.83   1 2.88   4 2.92  19 2.99  46 2.99
                            44 2.99  33 3.06
  26  0.500  0.383  0.625-  16 2.72  18 2.77   2 2.77  36 2.87   3 2.97  20 2.99  45 3.03
  27  0.830  0.661  0.625-  23 2.69  14 2.72   8 2.74  58 2.78   5 2.81  30 2.85   3 2.96  54 3.11
                            42 3.47
  28  0.847  0.110  0.455-  62 2.76   7 2.77   6 2.80  24 2.85  57 2.90  13 2.94  53 2.98  29 3.15
                             4 3.16  50 3.22  41 3.36
  29  0.852  0.349  0.376-  24 2.73   6 2.80   7 2.83  53 2.94  61 2.98  49 3.07  28 3.15  63 3.25

  30  0.851  0.864  0.550-   8 2.62   5 2.76  23 2.77  27 2.85  13 2.87  54 2.90  57 2.94  62 2.99
                            50 3.08
  31  0.522  0.339  0.461-   2 2.76   4 2.80  17 2.85   7 2.85  35 2.86  16 2.87  11 2.87  46 2.95
                            10 2.95  43 3.11
  32  0.528  0.901  0.622-  65 2.00  12 2.70   8 2.72   3 2.73  36 2.76  18 2.85  44 2.98  45 3.07

  33  0.500  0.625  0.541-   2 2.81  17 2.84  16 2.85  35 2.86   3 2.91  12 2.92  44 2.93  45 2.95
                            21 3.03  25 3.06
  34  0.499  0.102  0.365-  11 2.83   1 2.83  15 2.84   4 2.87  43 2.91  46 2.98  22 2.99
  35  0.400  0.580  0.451-  25 2.78   9 2.84  31 2.86  33 2.86  37 2.88  39 2.93  19 2.94  21 3.00
                            17 3.03  43 3.08
  36  0.399  0.121  0.622-  67 2.03  65 2.17  32 2.76  10 2.78  26 2.87  38 2.89  20 2.89  40 2.93
                            44 3.17  18 3.18
  37  0.255  0.366  0.464-  35 2.88  16 2.89  47 3.02  60 3.04  43 3.05  21 3.06  55 3.08  46 3.08
                            52 3.13  40 3.22  39 3.39
  38  0.240  0.924  0.628-  65 2.03  67 2.13  56 2.88  36 2.89  44 2.96  40 2.98  59 3.05  48 3.14
                            45 3.28  54 3.34
  39  0.252  0.614  0.376-  35 2.93  19 2.97  15 2.98  47 3.07  43 3.07  51 3.07  55 3.08  37 3.39
                            49 3.53
  40  0.246  0.136  0.549-  67 2.44  36 2.93  38 2.98  16 3.02  20 3.05  60 3.07  44 3.08  52 3.08
                            56 3.15  46 3.22  37 3.22  48 3.22  50 3.48
  41  0.865  0.859  0.370-   6 2.96  24 3.00  61 3.05  13 3.05  57 3.06  49 3.12   1 3.35  28 3.36
                            51 3.49  63 3.53
  42  0.864  0.384  0.545-  14 2.81   5 2.93  23 2.99  62 3.00   7 3.07  58 3.10  63 3.12  50 3.16
                            53 3.20  64 3.33   2 3.34  52 3.43  27 3.47
  43  0.381  0.352  0.373-  34 2.91  22 2.97  37 3.05  39 3.07  35 3.08   9 3.10  31 3.11  55 3.26
                            11 3.27  46 3.29
  44  0.375  0.873  0.547-  65 2.44  33 2.93  38 2.96  32 2.98  25 2.99  19 3.00  21 3.00  40 3.08
                            45 3.13  10 3.14  36 3.17  56 3.31  46 3.35  12 3.39
  45  0.386  0.655  0.631-  65 2.32  21 2.93  33 2.95  26 3.03  20 3.07  32 3.07  44 3.13   3 3.16
                            59 3.25  38 3.28
  46  0.384  0.104  0.456-  31 2.95  10 2.96  19 2.96  22 2.97  34 2.98  25 2.99  37 3.08  40 3.22
                             4 3.24  60 3.27  43 3.29  44 3.35  15 3.43
  47  0.117  0.611  0.465-  37 3.02  39 3.07  21 3.12  19 3.12  56 3.12  53 3.14  49 3.15   5 3.15
                            57 3.17  52 3.18  63 3.42  51 3.52  55 3.80
  48  0.100  0.182  0.639-  66 2.08  67 2.17  50 3.05  38 3.14  20 3.15  52 3.16  58 3.18  40 3.22
                            64 3.25  54 3.26
  49  0.996  0.593  0.368-  63 3.05  29 3.07  41 3.12  47 3.15  51 3.16  55 3.23  53 3.44  39 3.53
                            61 3.65  57 3.82
  50  0.994  0.112  0.545-  48 3.05  30 3.08  64 3.10  54 3.15  57 3.16  42 3.16  52 3.16  56 3.20
                            28 3.22  53 3.29  60 3.36  40 3.48  62 3.53
  51  0.119  0.872  0.375-  60 3.00  22 3.02   6 3.05  39 3.07  19 3.08  57 3.16  49 3.16  41 3.49
                            47 3.52
  52  0.113  0.395  0.552-  21 2.99   5 3.00  20 3.02  59 3.04  40 3.08  37 3.13  48 3.16  50 3.16
                            47 3.18  53 3.20  58 3.31  42 3.43
  53  1.000  0.331  0.453-   6 2.91  29 2.94  28 2.98  60 3.06  63 3.08  55 3.09  47 3.14  42 3.20
                            52 3.20  50 3.29  49 3.44
  54  1.000  0.876  0.625-  30 2.90   5 2.97  56 2.98  27 3.11  59 3.13  50 3.15  64 3.26  48 3.26
                            38 3.34
  55  0.145  0.332  0.368-   6 3.05  37 3.08  39 3.08  53 3.09  22 3.10  49 3.23  60 3.24  43 3.26
                            47 3.80
  56  0.136  0.848  0.542-  38 2.88   5 2.96  54 2.98  59 3.04  57 3.04  47 3.12  40 3.15  21 3.16
                            50 3.20  19 3.20  44 3.31  60 3.43
  57  0.979  0.876  0.465-  28 2.90  30 2.94  56 3.04  41 3.06  63 3.11  60 3.13  51 3.16  50 3.16
                            47 3.17  13 3.27   5 3.34   6 3.37  49 3.82
  58  0.963  0.449  0.643-  66 2.08  27 2.78   5 3.07  42 3.10  14 3.12  64 3.14  48 3.18  59 3.20
                            52 3.31
  59  0.152  0.633  0.622-  21 2.87   5 3.03  56 3.04  52 3.04  38 3.05  20 3.07  54 3.13  58 3.20
                            45 3.25
  60  0.147  0.092  0.451-  51 3.00  37 3.04  53 3.06  19 3.07  40 3.07   6 3.08  22 3.10  57 3.13
                            55 3.24  46 3.27  50 3.36  56 3.43
  61  0.731  0.606  0.367-   1 2.93  17 2.95   9 2.95  11 2.96  29 2.98  41 3.05  63 3.17  49 3.65

  62  0.739  0.130  0.538-  28 2.76  18 2.80  12 2.92   2 2.97   4 2.99  30 2.99  42 3.00   7 3.02
                            10 3.08   8 3.13  64 3.21  13 3.45  50 3.53
  63  0.869  0.592  0.458-  13 2.98  23 2.99  49 3.05   7 3.07  53 3.08   5 3.10  57 3.11  42 3.12
                            61 3.17  29 3.25  47 3.42  17 3.44  41 3.53
[...]
      3.51249      3.50019     12.83519        -0.109967     -0.029914     -0.468470
      3.30387      8.84183     17.37888        -0.001231     -0.008378     -0.013775
      3.46798      5.87237     10.40868         0.037331     -0.266673     -0.091122
      3.38902      1.30114     15.18735        -0.005057     -0.002335     -0.024067
     11.91771      8.21633     10.24534        -0.158478      0.033566      0.641138
     11.90191      3.67698     15.08267         0.001682     -0.003076     -0.001214
      5.24135      3.36543     10.32679         0.173443      0.082990      0.176920
      5.16962      8.35190     15.13365         0.000552     -0.001964     -0.003506
      5.32172      6.26199     17.45495         0.004515      0.002544      0.000043
      5.28930      0.99064     12.60849         0.031948     -0.192541     -0.288645
      1.60538      5.84491     12.85122         0.146495     -0.168847     -0.319719
      1.37755      1.73764     17.66887         0.000035     -0.000870     -0.015397
     13.72038      5.67134     10.18293         0.209653      0.156745      0.643928
     13.69271      1.06880     15.07582        -0.000295     -0.001507      0.001125
      1.63456      8.33987     10.36453        -0.034112     -0.465743      0.154737
      1.55260      3.77435     15.26332         0.000304      0.001461     -0.002490
     13.76831      3.16119     12.53308         0.157728      0.397848     -0.367206
     13.76563      8.37671     17.27665         0.001581     -0.000222     -0.000119
      1.99440      3.17314     10.17666        -0.108418     -0.150348      0.699770
      1.87691      8.10816     14.98397        -0.001882     -0.001444     -0.001500
     13.48051      8.37930     12.86886         0.043240      0.035265     -0.328702
     13.25797      4.29437     17.79881         0.003730     -0.004014      0.001001
      2.09211      6.05039     17.21033         0.001522      0.001033      0.001115
      2.02729      0.87737     12.46815        -0.026448      0.374842     -0.453435
     10.07171      5.79402     10.14663         0.166513     -0.616383      0.167019
     10.17133      1.23917     14.88715        -0.001017     -0.002618     -0.000051
     11.97051      5.66181     12.67660        -0.240416      0.431777     -0.304906
     11.90641      1.46929     17.57927         0.002937      0.002220      0.001324
      5.30592      8.58168     17.56280         0.000456      0.004917     -0.000480
     13.47320      2.42705     18.68670         0.000166      0.002186      0.001297
      3.51915      1.38503     17.61126        -0.017287     -0.006508      0.079616
    total drift:                               -0.002769      0.000572      0.001819

  FREE ENERGIE OF THE ION-ELECTRON SYSTEM (eV)
  free  energy   TOTEN  =      -536.81053528 eV

  energy  without entropy=     -536.80888387  energy(sigma->0) =     -536.81012243

 d Force =-0.6535990E-04[-0.239E-02, 0.226E-02]  d Energy =-0.1833797E-04-0.470E-04
 d Force =-0.2180782E+02[-0.217E+02,-0.219E+02]  d Ewald  =-0.2180796E+02 0.141E-03

 Finite differences progress:
  Degree of freedom:   9/  9
  Displacement:        2/  2
  Total:              18/ 18

 SECOND DERIVATIVES (NOT SYMMETRIZED)
              65X         65Y         65Z         66X         66Y         66Z         67X         67Y         67Z
 65X   -15.601937    1.280860    0.816920   -0.001790   -0.008027    0.027670    0.362408   -0.383358    0.153833
 65Y     1.289270   -7.251485    0.561020    0.006381    0.016053   -0.003189   -0.403632    0.457619   -0.260698
 65Z     0.811862    0.555624   -5.050152    0.000249    0.007883   -0.002106   -0.166778    0.183525   -0.238958
 66X     0.003033   -0.001133   -0.013007  -10.712981    1.854457    1.332309    0.838165   -0.097370    0.050481
 66Y    -0.023689    0.030961    0.036387    1.921417  -10.398620    0.468636   -0.622546   -0.059930   -0.031422
 66Z     0.024677    0.004321   -0.056692    1.295879    0.466430  -11.577716   -0.603744    0.044405   -0.162347
 67X     0.359756   -0.402206   -0.169232    0.855718   -0.634760   -0.634572  -15.627736    2.187417    0.832669
 67Y    -0.381208    0.456933    0.180600   -0.102921   -0.059229    0.059483    2.184191   -7.449001    0.407111
 67Z     0.153797   -0.258518   -0.257343    0.045309   -0.030653   -0.174178    0.820227    0.397508   -5.162485

 Eigenvectors and eigenvalues of the dynamical matrix

   1 f  =   16.046837 THz   100.825249 2PiTHz  535.264840 cm-1    66.364406 meV
             X         Y         Z           dx          dy          dz
      8.576308  8.296846 10.398452            0           0           0
      8.564867  3.729845 15.092710            0           0           0
      8.482620  6.164138 17.382315            0           0           0
      8.516162  0.799950 12.438738            0           0           0
     13.470746  6.134917 15.346089            0           0           0
     13.490936  1.153156 10.447489            0           0           0
     10.033436  3.284281 12.674110            0           0           0
      9.993970  8.645430 17.152560            0           0           0
      7.125241  5.815767 10.157648            0           0           0
      7.091238  1.263281 14.937464            0           0           0
      8.512220  3.280358 10.204496            0           0           0
      8.548232  8.371536 14.849203            0           0           0
     10.222632  8.067230 12.779914            0           0           0
     10.199956  3.903143 17.312294            0           0           0
      5.426642  8.104815 10.206391            0           0           0
      5.422831  3.521146 15.005340            0           0           0
      8.528427  5.754231 12.656400            0           0           0
      8.659403  1.544736 17.218081            0           0           0
      3.848293  7.973169 12.472590            0           0           0
      3.893568  3.562652 17.167030            0           0           0
      3.863811  5.652117 14.987954            0           0           0
      3.900631  0.738911 10.000000            0           0           0
     10.084332  6.044038 14.967045            0           0           0
     10.191124  1.104695 10.137364            0           0           0
      6.829455  7.994241 12.666696            0           0           0
      6.881149  3.663784 17.297168            0           0           0
     11.432445  6.322398 17.278024            0           0           0
     11.667723  1.053724 12.575471            0           0           0
     11.739193  3.338683 10.411988            0           0           0
     11.723841  8.264639 15.218682            0           0           0
      7.185217  3.246439 12.753898            0           0           0
      7.277804  8.613681 17.218591            0           0           0
      6.880551  5.974079 14.962031            0           0           0
      6.877947  0.975598 10.086954            0           0           0
      5.510835  5.550117 12.484188            0           0           0
      5.498964  1.154166 17.217198            0           0           0
      3.512495  3.500193 12.835186            0           0           0
      3.303871  8.841831 17.378877            0           0           0
      3.467984  5.872368 10.408681            0           0           0
      3.389023  1.301144 15.187354            0           0           0
     11.917712  8.216334 10.245339            0           0           0
     11.901912  3.676975 15.082667            0           0           0
      5.241350  3.365425 10.326787            0           0           0
      5.169625  8.351896 15.133648            0           0           0
      5.321718  6.261988 17.454954            0           0           0
      5.289302  0.990642 12.608494            0           0           0
      1.605379  5.844910 12.851215            0           0           0
      1.377546  1.737636 17.668867            0           0           0
     13.720378  5.671342 10.182934            0           0           0
     13.692708  1.068800 15.075822            0           0           0
      1.634565  8.339874 10.364530            0           0           0
      1.552604  3.774345 15.263320            0           0           0
     13.768315  3.161194 12.533077            0           0           0
     13.765627  8.376708 17.276646            0           0           0
      1.994404  3.173136 10.176661            0           0           0
      1.876905  8.108162 14.983968            0           0           0
     13.480506  8.379299 12.868857            0           0           0
     13.257972  4.294370 17.798810            0           0           0
      2.092114  6.050386 17.210326            0           0           0
      2.027287  0.877370 12.468150            0           0           0
     10.071711  5.794019 10.146627            0           0           0
     10.171326  1.239174 14.887149            0           0           0
     11.970507  5.661807 12.676598            0           0           0
     11.906410  1.469287 17.579266            0           0           0
      5.305918  8.581676 17.562802     0.427607   -0.098753   -0.039161
     13.473198  2.427052 18.686704     0.183947   -0.121099   -0.135702
      3.519154  1.385026 17.626261    -0.831036    0.216243    0.039613

[...]

   9 f  =    8.371658 THz    52.600681 2PiTHz  279.248455 cm-1    34.622408 meV
             X         Y         Z           dx          dy          dz
      8.576308  8.296846 10.398452            0           0           0
      8.564867  3.729845 15.092710            0           0           0
      8.482620  6.164138 17.382315            0           0           0
      8.516162  0.799950 12.438738            0           0           0
     13.470746  6.134917 15.346089            0           0           0
     13.490936  1.153156 10.447489            0           0           0
     10.033436  3.284281 12.674110            0           0           0
      9.993970  8.645430 17.152560            0           0           0
      7.125241  5.815767 10.157648            0           0           0
      7.091238  1.263281 14.937464            0           0           0
      8.512220  3.280358 10.204496            0           0           0
      8.548232  8.371536 14.849203            0           0           0
     10.222632  8.067230 12.779914            0           0           0
     10.199956  3.903143 17.312294            0           0           0
      5.426642  8.104815 10.206391            0           0           0
      5.422831  3.521146 15.005340            0           0           0
      8.528427  5.754231 12.656400            0           0           0
      8.659403  1.544736 17.218081            0           0           0
      3.848293  7.973169 12.472590            0           0           0
      3.893568  3.562652 17.167030            0           0           0
      3.863811  5.652117 14.987954            0           0           0
      3.900631  0.738911 10.000000            0           0           0
     10.084332  6.044038 14.967045            0           0           0
     10.191124  1.104695 10.137364            0           0           0
      6.829455  7.994241 12.666696            0           0           0
      6.881149  3.663784 17.297168            0           0           0
     11.432445  6.322398 17.278024            0           0           0
     11.667723  1.053724 12.575471            0           0           0
     11.739193  3.338683 10.411988            0           0           0
     11.723841  8.264639 15.218682            0           0           0
      7.185217  3.246439 12.753898            0           0           0
      7.277804  8.613681 17.218591            0           0           0
      6.880551  5.974079 14.962031            0           0           0
      6.877947  0.975598 10.086954            0           0           0
      5.510835  5.550117 12.484188            0           0           0
      5.498964  1.154166 17.217198            0           0           0
      3.512495  3.500193 12.835186            0           0           0
      3.303871  8.841831 17.378877            0           0           0
      3.467984  5.872368 10.408681            0           0           0
      3.389023  1.301144 15.187354            0           0           0
     11.917712  8.216334 10.245339            0           0           0
     11.901912  3.676975 15.082667            0           0           0
      5.241350  3.365425 10.326787            0           0           0
      5.169625  8.351896 15.133648            0           0           0
      5.321718  6.261988 17.454954            0           0           0
      5.289302  0.990642 12.608494            0           0           0
      1.605379  5.844910 12.851215            0           0           0
      1.377546  1.737636 17.668867            0           0           0
     13.720378  5.671342 10.182934            0           0           0
     13.692708  1.068800 15.075822            0           0           0
      1.634565  8.339874 10.364530            0           0           0
      1.552604  3.774345 15.263320            0           0           0
     13.768315  3.161194 12.533077            0           0           0
     13.765627  8.376708 17.276646            0           0           0
      1.994404  3.173136 10.176661            0           0           0
      1.876905  8.108162 14.983968            0           0           0
     13.480506  8.379299 12.868857            0           0           0
     13.257972  4.294370 17.798810            0           0           0
      2.092114  6.050386 17.210326            0           0           0
      2.027287  0.877370 12.468150            0           0           0
     10.071711  5.794019 10.146627            0           0           0
     10.171326  1.239174 14.887149            0           0           0
     11.970507  5.661807 12.676598            0           0           0
     11.906410  1.469287 17.579266            0           0           0
      5.305918  8.581676 17.562802    -0.077530   -0.254938   -0.761140
     13.473198  2.427052 18.686704     0.006472   -0.015013   -0.017238
      3.519154  1.385026 17.626261     0.076423    0.061274    0.582668

 Finite differences POTIM=  1.500000000000000E-002
  LATTYP: Found a simple orthorhombic cell.
 ALAT       =     9.5644817352
 B/A-ratio  =     1.4398428730
 C/A-ratio  =     2.8922184390

  Lattice vectors:

 A1 = (   0.0000000000,  -9.5644817352,   0.0000000000)
 A2 = ( -13.7713508606,   0.0000000000,   0.0000000000)
 A3 = (   0.0000000000,   0.0000000000, -27.6625704340)

Analysis of symmetry for initial positions (statically):
 Subroutine PRICEL returns:
 Original cell was already a primitive cell.

[...]

The static configuration has the point symmetry C_1 .

Analysis of symmetry for dynamics (positions and initial velocities):
 Subroutine PRICEL returns:
 Original cell was already a primitive cell.

[...]

The dynamic configuration has the point symmetry C_1 .

Analysis of constrained symmetry for selective dynamics:
 Subroutine PRICEL returns:
 Original cell was already a primitive cell.

 Routine SETGRP: Setting up the symmetry group for a
 simple orthorhombic supercell.

 Subroutine GETGRP returns: Found  1 space group operations
 (whereof  1 operations were pure point group operations)
 out of a pool of  8 trial point group operations.

The constrained configuration has the point symmetry C_1 .

 Subroutine INISYM returns: Found  1 space group operations
 (whereof  1 operations are pure point group operations),
 and found     1 'primitive' translations

 KPOINTS: k-points

Automatic generation of k-mesh.
Space group operators:
 irot       det(A)        alpha          n_x          n_y          n_z        tau_x        tau_y        tau_z
    1     1.000000     0.000001     1.000000     0.000000     0.000000     0.000000     0.000000     0.000000

 Subroutine IBZKPT returns following result:

 Found      5 irreducible k-points:

 Following reciprocal coordinates:
            Coordinates               Weight
  0.000000  0.000000  0.000000      1.000000
  0.333333  0.000000  0.000000      2.000000
  0.000000  0.333333  0.000000      2.000000
  0.333333  0.333333  0.000000      2.000000
 -0.333333  0.333333  0.000000      2.000000

 Following cartesian coordinates:
            Coordinates               Weight
  0.000000  0.000000  0.000000      1.000000
  0.024205  0.000000  0.000000      2.000000
  0.000000  0.034851  0.000000      2.000000
  0.024205  0.034851  0.000000      2.000000
 -0.024205  0.034851  0.000000      2.000000