 vasp.5.4.1 05Feb16 (build Mar 19 2020 08:54:17) complex

 executed on           IFC91_ompi date 2021.11.12  23:20:00

 INCAR:
 POTCAR:    PAW_PBE Al 04Jan2001
 POTCAR:    PAW_PBE Nb_sv 25May2007
 POTCAR:    PAW_PBE Ta 17Jan2003
 POTCAR:    PAW_PBE Ti 08Apr2002
 POTCAR:   PAW_PBE Zr 08Apr2002
 POTCAR:    PAW_PBE O 08Apr2002

 POTCAR:    PAW_PBE Al 04Jan2001
   VRHFIN =Al: s2p1

   TITEL  = PAW_PBE Al 04Jan2001
   POMASS =   26.981; ZVAL   =    3.000    mass and valenz
   ENMAX  =  240.300; ENMIN  =  180.225 eV

 POTCAR:    PAW_PBE Nb_sv 25May2007
   VRHFIN =Nb: 4p5s4d

   TITEL  = PAW_PBE Nb_sv 25May2007
   POMASS =   92.910; ZVAL   =   13.000    mass and valenz
   ENMAX  =  293.235; ENMIN  =  219.927 eV

 POTCAR:    PAW_PBE Ta 17Jan2003
   VRHFIN =Ta:  6s5d

   TITEL  = PAW_PBE Ta 17Jan2003
   POMASS =  180.948; ZVAL   =    5.000    mass and valenz
   ENMAX  =  223.667; ENMIN  =  167.750 eV

 POTCAR:    PAW_PBE Ti 08Apr2002
   VRHFIN =Ti: d3 s1

   TITEL  = PAW_PBE Ti 08Apr2002
   POMASS =   47.880; ZVAL   =    4.000    mass and valenz
   ENMAX  =  178.330; ENMIN  =  133.747 eV

 POTCAR:   PAW_PBE Zr 08Apr2002
   VRHFIN =Zr: 5s4d5p

   TITEL  = PAW_PBE Zr 08Apr2002
   POMASS =   91.224; ZVAL   =    4.000    mass and valenz
   ENMAX  =  154.632; ENMIN  =  115.974 eV
   QCUT   =   -3.371; QGAM   =    6.742    optimization parameters

   Description
     l     E      TYP  RCUT    TYP  RCUT
     2   .000     23  3.000
     2   .000     23  3.000
     0   .000     23  3.000
     0  2.000     23  3.000
     1  -.400     23  3.000
     3   .000      7   .000

 POTCAR:    PAW_PBE O 08Apr2002
   VRHFIN =O: s2p4

   TITEL  = PAW_PBE O 08Apr2002
   POMASS =   16.000; ZVAL   =    6.000    mass and valenz
   ENMAX  =  400.000; ENMIN  =  300.000 eV

 Optimization of the real space projectors (new method)

 maximal supplied QI-value         = 19.84
 optimisation between [QCUT,QGAM] = [ 12.50, 25.00] = [ 43.76,175.03] Ry
 Optimized for a Real-space Cutoff    1.06 Angstroem

   l    n(q)    QCUT    max X(q) W(low)/X(q) W(high)/X(q)  e(spline)
   0      8    12.501   176.870    0.16E-03    0.12E-03    0.66E-07
   0      8    12.501   105.762    0.15E-03    0.12E-03    0.64E-07
   1      7    12.501    55.370    0.36E-03    0.38E-03    0.67E-07
   1      7    12.501    20.208    0.32E-03    0.35E-03    0.64E-07
 Optimization of the real space projectors (new method)

[...]

   l    n(q)    QCUT    max X(q) W(low)/X(q) W(high)/X(q)  e(spline)
   2     11    12.478    49.363    0.45E-03    0.34E-03    0.89E-06
   2     11    12.478    47.669    0.44E-03    0.33E-03    0.87E-06
   0     12    12.478    26.374    0.17E-03    0.37E-04    0.21E-05
   0     12    12.478    11.549    0.13E-03    0.31E-04    0.17E-05
   1     11    12.478     9.492    0.91E-05    0.64E-04    0.34E-06
 Optimization of the real space projectors (new method)

[...]

   l    n(q)    QCUT    max X(q) W(low)/X(q) W(high)/X(q)  e(spline)
   2     12    12.472     5.149    0.23E-04    0.12E-05    0.19E-06
   2     12    12.472    48.417    0.26E-03    0.15E-03    0.35E-05
   0     13    12.472    27.113    0.15E-04    0.46E-05    0.14E-06
   0     13    12.472    33.957    0.20E-04    0.33E-04    0.12E-05
   1     12    12.472    13.771    0.11E-04    0.23E-05    0.34E-06
 WARNING: PSMAXN for non-local potential too small
          PSMAXN should be >   12.5490833729506       NTYP=           5
 Optimization of the real space projectors (new method)

 maximal supplied QI-value         = 24.76
 optimisation between [QCUT,QGAM] = [ 12.38, 25.00] = [ 42.90,175.06] Ry
 Optimized for a Real-space Cutoff    1.13 Angstroem

   l    n(q)    QCUT    max X(q) W(low)/X(q) W(high)/X(q)  e(spline)
   0      8    12.378    20.381    0.16E-03    0.54E-05    0.27E-06
   0      8    12.378    15.268    0.17E-03    0.61E-05    0.29E-06
   1      8    12.378     5.964    0.38E-03    0.23E-03    0.28E-06
   1      8    12.378     5.382    0.33E-03    0.20E-03    0.25E-06
  PAW_PBE Al 04Jan2001                  :
  PAW_PBE Nb_sv 25May2007               :
  PAW_PBE Ta 17Jan2003                  :
  PAW_PBE Ti 08Apr2002                  :
 PAW_PBE Zr 08Apr2002                   :
  PAW_PBE O 08Apr2002                   :

 POSCAR: Al Nb Ta Ti Zr
  positions in direct lattice
  velocities in cartesian coordinates
 exchange correlation table for  LEXCH =        8
   RHO(1)=    0.500       N(1)  =     2000
   RHO(2)=  100.500       N(2)  =     4000

 ion  position               nearest neighbor table
   1  0.623  0.867  0.376-  34 2.83  25 2.88  24 2.88   9 2.88  13 2.90   4 2.91  61 2.93  15 3.16
                            41 3.35  17 3.40
   2  0.622  0.391  0.548-  23 2.80  33 2.80  31 2.81  26 2.82  14 2.82  10 2.90   7 2.92  62 2.96
                            18 3.09  16 3.12   3 3.13  17 3.21  42 3.35
   3  0.617  0.631  0.625-  32 2.80   8 2.86  23 2.87  14 2.88  33 2.88  26 2.93  27 3.05   2 3.13
                            45 3.22
   4  0.618  0.084  0.450-  31 2.80  24 2.86  34 2.87  10 2.88  13 2.88   1 2.91  25 2.92   7 2.92
                            62 2.95  28 3.16  12 3.17  46 3.24
   5  0.980  0.639  0.553-  27 2.77  30 2.81  59 2.92  42 2.93  56 2.95  52 3.07  63 3.07  54 3.10
                            47 3.11  58 3.16  57 3.33
   6  0.980  0.121  0.378-  29 2.80  28 2.80  53 2.91  41 2.96  51 3.05  55 3.05  60 3.08  57 3.37

   7  0.729  0.343  0.458-  28 2.77  29 2.83  31 2.85  17 2.89  11 2.90   2 2.92   4 2.92  62 3.01
                            42 3.04  63 3.07
   8  0.723  0.888  0.622-  30 2.65  32 2.72  12 2.74  27 2.79   3 2.86  18 2.87  64 3.02  62 3.27

   9  0.517  0.608  0.367-  35 2.84  15 2.85  17 2.87   1 2.88  11 2.89  61 2.95  43 3.10
  10  0.517  0.128  0.539-  18 2.75  16 2.79  36 2.82  12 2.84   4 2.88   2 2.90  46 2.96  31 2.96
                            62 2.99  44 3.14
  11  0.618  0.343  0.369-  24 2.75  34 2.83  31 2.87   9 2.89   7 2.90  61 2.96  43 3.27
  12  0.619  0.870  0.537-  32 2.70  13 2.70   8 2.74  23 2.79  25 2.80  10 2.84  33 2.91  62 2.94
                             4 3.17  44 3.33
  13  0.742  0.843  0.462-  12 2.70  30 2.85  17 2.87   4 2.88   1 2.90  28 2.94  23 2.95  63 2.98
                            41 3.05  57 3.27  62 3.44
  14  0.745  0.395  0.629-  27 2.74  64 2.81   2 2.82   3 2.88  18 2.88  42 2.89  58 3.03
  15  0.394  0.847  0.369-  22 2.68  19 2.76  25 2.83  34 2.84   9 2.85  39 2.98   1 3.16  46 3.43

  16  0.397  0.362  0.540-  20 2.66  10 2.79  26 2.80  31 2.80  21 2.82  33 2.84  37 2.88  40 3.02
                             2 3.12  46 3.41
  17  0.619  0.602  0.458-  23 2.80  25 2.81  33 2.82  31 2.85   9 2.87  13 2.87   7 2.89  61 2.95
                            35 3.03   2 3.21   1 3.40  63 3.44
  18  0.624  0.151  0.623-  10 2.75  26 2.81  32 2.81  62 2.81   8 2.87  14 2.88  36 2.89   2 3.09
                            64 3.13
  19  0.279  0.834  0.451-  15 2.76  35 2.94  46 2.96  39 2.97  25 2.99  44 3.04  60 3.07  51 3.08
                            47 3.12  21 3.24  56 3.24
  20  0.295  0.341  0.622-  65 2.04  66 2.22  16 2.66  36 2.67  26 2.80  40 2.91  48 3.01  52 3.06
                            45 3.12
  21  0.277  0.601  0.536-  65 2.10  16 2.82  45 2.88  35 2.90  44 2.93  52 2.94  47 2.97  37 3.02
                            33 3.04  56 3.12  19 3.24  59 3.36
  22  0.283  0.077  0.361-  15 2.68  46 2.97  43 2.97  34 2.99  51 3.02  55 3.10  60 3.10
  23  0.736  0.632  0.540-  30 2.74  27 2.75  12 2.79  17 2.80   2 2.80   3 2.87  63 2.93  13 2.95
                            42 2.97
  24  0.740  0.115  0.366-  29 2.73  11 2.75  28 2.85   4 2.86   1 2.88  41 3.00
  25  0.496  0.836  0.458-  35 2.78  12 2.80  17 2.81  15 2.83   1 2.88   4 2.92  19 2.99  46 2.99
                            44 3.00  33 3.04
  26  0.496  0.379  0.628-  66 2.03  36 2.71  20 2.80  16 2.80  18 2.81   2 2.82   3 2.93  45 2.96

  27  0.838  0.648  0.625-  14 2.74  23 2.75   5 2.77  58 2.77   8 2.79  30 2.94   3 3.05  54 3.09
                            42 3.41
  28  0.847  0.110  0.455-   7 2.77  62 2.78   6 2.80  24 2.85  57 2.90  13 2.94  53 2.98  29 3.15
                             4 3.16  50 3.22  41 3.36
  29  0.852  0.349  0.376-  24 2.73   6 2.80   7 2.83  53 2.94  61 2.98  49 3.07  28 3.15  63 3.25

  30  0.849  0.865  0.550-   8 2.65  23 2.74  54 2.79   5 2.81  13 2.85  27 2.94  57 2.94  62 2.99
                            50 3.14  64 3.54
  31  0.522  0.339  0.461-  16 2.80   4 2.80   2 2.81  17 2.85   7 2.85  35 2.86  11 2.87  46 2.95
                            10 2.96  43 3.11
  32  0.526  0.893  0.623-  36 2.67  12 2.70   8 2.72   3 2.80  18 2.81  44 2.90  45 3.11
  33  0.498  0.621  0.539-   2 2.80  35 2.80  17 2.82  16 2.84  45 2.86   3 2.88  44 2.89  12 2.91
                            21 3.04  25 3.04
  34  0.499  0.102  0.365-  11 2.83   1 2.83  15 2.84   4 2.87  43 2.91  46 2.98  22 2.99
  35  0.400  0.580  0.451-  25 2.78  33 2.80   9 2.84  31 2.86  37 2.88  21 2.90  39 2.93  19 2.94
                            17 3.03  43 3.08
  36  0.415  0.121  0.627-  32 2.67  20 2.67  26 2.71  10 2.82  18 2.89  38 3.07  40 3.12  44 3.30

  37  0.255  0.366  0.464-  16 2.88  35 2.88  47 3.02  21 3.02  60 3.04  43 3.05  55 3.08  46 3.08
                            52 3.09  40 3.28  39 3.39
  38  0.244  0.915  0.626-  56 2.84  44 2.88  59 2.94  40 2.95  48 3.00  36 3.07  45 3.24
  39  0.252  0.614  0.376-  35 2.93  19 2.97  15 2.98  47 3.07  43 3.07  51 3.07  55 3.08  37 3.39
                            49 3.53
  40  0.251  0.129  0.550-  20 2.91  38 2.95  48 2.99  16 3.02  44 3.05  52 3.09  60 3.11  56 3.11
                            36 3.12  46 3.19  37 3.28  50 3.56
  41  0.865  0.859  0.370-   6 2.96  24 3.00  61 3.05  13 3.05  57 3.06  49 3.12   1 3.35  28 3.36
                            51 3.49  63 3.53
  42  0.865  0.383  0.543-  14 2.89   5 2.93  23 2.97  58 3.02  62 3.03   7 3.04  50 3.06  63 3.09
                            53 3.15   2 3.35  64 3.41  27 3.41  52 3.58
  43  0.381  0.352  0.373-  34 2.91  22 2.97  37 3.05  39 3.07  35 3.08   9 3.10  31 3.11  55 3.26
                            11 3.27  46 3.29
  44  0.379  0.869  0.548-  38 2.88  33 2.89  32 2.90  21 2.93  25 3.00  45 3.04  19 3.04  40 3.05
                            10 3.14  36 3.30  12 3.33  56 3.39  46 3.41
  45  0.383  0.642  0.625-  66 2.22  65 2.27  33 2.86  21 2.88  26 2.96  44 3.04  32 3.11  20 3.12
                             3 3.22  38 3.24  59 3.54
  46  0.384  0.104  0.456-  31 2.95  10 2.96  19 2.96  22 2.97  34 2.98  25 2.99  37 3.08  40 3.19
                             4 3.24  60 3.27  43 3.29  44 3.41  16 3.41  15 3.43
  47  0.117  0.611  0.465-  21 2.97  37 3.02  39 3.07   5 3.11  19 3.12  53 3.14  49 3.15  56 3.16
                            57 3.17  52 3.23  63 3.42  51 3.52  55 3.80
  48  0.115  0.167  0.633-  50 2.98  40 2.99  38 3.00  20 3.01  52 3.09  54 3.18  58 3.24  64 3.66

  49  0.996  0.593  0.368-  63 3.05  29 3.07  41 3.12  47 3.15  51 3.16  55 3.23  53 3.44  39 3.53
                            61 3.65  57 3.82
  50  0.992  0.120  0.546-  48 2.98  42 3.06  54 3.07  30 3.14  64 3.14  52 3.20  28 3.22  56 3.22
                            57 3.23  53 3.26  60 3.39  62 3.56  40 3.56
[...]
         0         1         2         3         4         5         6         7         8         9
 total charge-density along one line

------------------------ aborting loop because EDIFF is reached ----------------------------------------

  FORCE on cell =-STRESS in cart. coord.  units (eV):
  Direction    XX          YY          ZZ          XY          YZ          ZX
  Alpha Z   529.78975   529.78975   529.78975
  Ewald   79891.28882 85003.55928-91121.58292  -954.62947   121.44696   384.80064
  Hartree 84465.54707 89325.95841-80639.55571  -755.07458    90.78613   351.64306
  E(xc)   -1501.97773 -1505.27033 -1493.00823     0.69188     0.04562     0.36973
  Local  ************************168022.76607  1705.38695  -209.79930  -733.31075
  n-local   -66.02530   -65.31323   -97.56596     9.46667    -1.76048     2.83830
  augment   449.44592   450.22843   445.38659    -1.24596     0.34545    -0.06737
  Kinetic  4332.42500  4318.36365  4337.95537    -9.21699     4.68904    -7.73409
  Fock        0.00000     0.00000     0.00000     0.00000     0.00000     0.00000
  Total     -32.54292   -25.54890   -15.81505    -4.62150     5.75342    -1.46047
  in kB     -14.30990   -11.23446    -6.95425    -2.03218     2.52992    -0.64220

 VOLUME and BASIS-vectors are now :
  energy-cutoff  :      600.00
  volume of cell :     3643.60
      direct lattice vectors                 reciprocal lattice vectors
    13.771350861  0.000000000  0.000000000     0.072614518  0.000000000  0.000000000
     0.000000000  9.564481735  0.000000000     0.000000000  0.104553496  0.000000000
     0.000000000  0.000000000 27.662570434     0.000000000  0.000000000  0.036149931

  length of vectors
    13.771350861  9.564481735 27.662570434     0.072614518  0.104553496  0.036149931

 FORCES acting on ions
    electron-ion (+dipol)            ewald-force                    non-local-force                 convergence-correction
   -.473E+02 -.339E+02 0.381E+03   0.471E+02 0.337E+02 -.380E+03   0.109E+00 0.608E-01 -.792E+00   0.428E-03 0.423E-03 0.873E-02
   -.250E+02 -.341E+02 -.135E+03   0.249E+02 0.341E+02 0.135E+03   0.787E-01 0.296E-01 0.170E+00   -.616E-03 0.227E-03 0.212E-01
   0.231E+02 0.108E+02 -.369E+03   -.224E+02 -.104E+02 0.368E+03   -.669E+00 -.414E+00 0.111E+01   -.318E-02 0.114E-02 0.728E-02
   -.160E+00 0.611E+01 0.197E+03   0.669E-01 -.597E+01 -.196E+03   0.105E+00 -.319E+00 -.989E+00   0.661E-03 0.248E-03 0.184E-01
   -.529E+02 0.525E+01 -.113E+03   0.526E+02 -.474E+01 0.114E+03   0.256E+00 -.512E+00 -.120E+01   -.471E-02 0.625E-03 0.229E-01
   -.461E+02 0.469E+01 0.323E+03   0.454E+02 -.410E+01 -.320E+03   0.669E+00 -.101E+01 -.230E+01   -.541E-02 -.158E-03 0.398E-02
   -.384E+03 -.697E+01 0.446E+03   0.384E+03 0.771E+01 -.448E+03   0.868E-01 -.365E+00 0.926E+00   -.258E-01 0.260E-02 0.886E-01
   -.293E+03 0.260E+02 -.166E+04   0.293E+03 -.250E+02 0.166E+04   0.903E+00 -.982E+00 0.410E+01   -.245E-01 0.154E-01 0.443E-01
   0.986E+02 -.100E+02 0.163E+04   -.983E+02 0.893E+01 -.163E+04   -.569E+00 0.608E+00 -.431E+01   0.147E-01 0.398E-03 0.392E-01
   0.187E+03 0.243E+02 -.405E+03   -.187E+03 -.243E+02 0.406E+03   0.151E+00 -.268E-01 -.116E+01   0.130E-01 -.249E-02 0.114E+00
   -.572E+02 0.138E+03 0.170E+04   0.580E+02 -.137E+03 -.170E+04   -.509E+00 -.417E+00 -.275E+01   0.419E-02 -.242E-02 0.356E-01
   0.981E+02 0.127E+03 -.424E+03   -.973E+02 -.127E+03 0.424E+03   -.753E+00 0.209E+00 -.236E+00   -.588E-02 -.315E-02 0.105E+00
   -.422E+03 -.161E+01 0.723E+03   0.423E+03 0.395E+00 -.722E+03   -.815E+00 0.146E+01 -.164E+01   -.252E-01 -.457E-02 0.932E-01
   -.193E+03 -.321E+02 -.153E+04   0.194E+03 0.318E+02 0.152E+04   -.129E+01 0.299E+00 0.320E+01   -.151E-01 -.174E-01 0.358E-01
   0.297E+03 -.117E+03 0.154E+04   -.297E+03 0.118E+03 -.153E+04   0.263E+00 -.393E+00 -.420E+01   0.319E-01 -.138E-01 0.316E-01
   0.324E+03 -.746E+02 -.363E+03   -.324E+03 0.742E+02 0.364E+03   0.453E-01 0.447E+00 -.422E+00   0.424E-01 -.981E-02 0.113E+00
   -.141E+02 0.206E+01 0.178E+03   0.136E+02 -.194E+01 -.179E+03   0.442E+00 -.323E+00 0.979E-01   -.197E-03 -.486E-03 0.347E-01
   -.649E+01 -.244E+02 -.662E+03   0.585E+01 0.244E+02 0.660E+03   0.655E+00 -.231E-01 0.239E+01   -.637E-02 -.243E-02 0.169E-01
   0.173E+03 -.123E+02 0.166E+03   -.172E+03 0.119E+02 -.167E+03   -.135E+01 0.782E+00 0.588E+00   0.121E-01 0.477E-03 0.309E-01
   0.164E+03 0.111E+03 -.594E+03   -.163E+03 -.112E+03 0.591E+03   -.104E+01 0.111E+01 0.298E+01   0.988E-02 -.789E-02 0.221E-01
   0.110E+03 -.725E+02 -.508E+02   -.110E+03 0.726E+02 0.493E+02   -.843E+00 -.669E-01 0.148E+01   0.924E-02 0.322E-02 0.331E-01
   0.117E+03 -.550E+02 0.470E+03   -.116E+03 0.552E+02 -.467E+03   -.808E+00 -.264E+00 -.262E+01   0.536E-02 -.588E-03 0.387E-02
   -.106E+03 0.673E+02 -.148E+03   0.106E+03 -.669E+02 0.148E+03   0.192E+00 -.415E+00 0.580E+00   -.716E-02 0.133E-03 0.266E-01
   -.101E+03 0.597E+02 0.523E+03   0.100E+03 -.592E+02 -.520E+03   0.460E+00 -.468E+00 -.275E+01   -.489E-02 0.733E-03 0.695E-02
   0.803E+02 -.131E+02 0.159E+03   -.811E+02 0.127E+02 -.159E+03   0.717E+00 0.668E+00 -.323E+00   0.721E-02 -.997E-03 0.258E-01
   -.404E+02 -.572E+01 -.497E+03   0.400E+02 0.520E+01 0.495E+03   0.452E+00 0.530E+00 0.185E+01   0.244E-02 -.533E-02 0.107E-01
   -.127E+03 -.138E+01 -.444E+03   0.126E+03 0.158E+01 0.442E+03   0.237E+00 -.198E+00 0.216E+01   -.563E-02 0.852E-03 0.133E-01
   -.165E+03 0.644E+01 0.186E+03   0.165E+03 -.624E+01 -.187E+03   0.304E+00 -.286E+00 0.293E+00   -.100E-01 -.594E-04 0.234E-01
   -.150E+03 -.546E+01 0.479E+03   0.149E+03 0.541E+01 -.476E+03   0.654E+00 -.366E-01 -.257E+01   -.916E-02 -.399E-02 0.788E-02
   -.202E+03 -.365E+01 -.156E+03   0.201E+03 0.377E+01 0.156E+03   0.941E+00 -.125E+00 0.403E+00   -.880E-02 0.365E-03 0.296E-01
   0.775E+02 0.809E+00 0.176E+03   -.777E+02 -.455E+00 -.176E+03   0.107E-01 -.415E-01 0.312E-01   0.722E-02 0.107E-02 0.256E-01
   0.117E+03 0.364E+02 -.533E+03   -.116E+03 -.365E+02 0.531E+03   -.419E+00 0.115E+00 0.218E+01   -.403E-03 0.553E-02 0.147E-01
   0.533E+02 -.152E+02 -.165E+03   -.537E+02 0.154E+02 0.164E+03   0.346E+00 -.231E+00 0.607E+00   0.777E-02 0.134E-02 0.299E-01
   0.353E+02 -.620E+00 0.503E+03   -.360E+02 0.566E+00 -.501E+03   0.616E+00 0.191E-01 -.247E+01   0.948E-02 0.722E-03 0.821E-02
   0.126E+03 0.655E+01 0.163E+03   -.125E+03 -.682E+01 -.163E+03   -.743E+00 0.631E+00 -.417E+00   0.133E-01 0.133E-02 0.233E-01
   0.106E+03 0.602E+02 -.509E+03   -.106E+03 -.592E+02 0.507E+03   -.383E+00 -.983E+00 0.231E+01   0.651E-02 -.386E-02 0.170E-01
   0.130E+03 0.131E+02 0.186E+03   -.130E+03 -.126E+02 -.186E+03   -.833E-01 -.462E+00 -.368E+00   0.802E-02 -.111E-02 0.261E-01
   0.572E+02 -.311E+01 -.438E+03   -.575E+02 0.240E+01 0.436E+03   0.297E+00 0.715E+00 0.217E+01   0.510E-02 0.281E-02 0.177E-01
   0.127E+03 0.387E+02 0.429E+03   -.127E+03 -.385E+02 -.426E+03   0.192E+00 -.485E+00 -.277E+01   0.720E-02 0.111E-02 0.657E-02
   0.133E+03 0.518E+02 -.146E+03   -.132E+03 -.511E+02 0.147E+03   -.338E+00 -.771E+00 -.117E+01   0.666E-02 -.313E-02 0.365E-01
   -.991E+02 -.125E+01 0.487E+03   0.995E+02 0.124E+01 -.484E+03   -.499E+00 0.177E-02 -.309E+01   -.818E-02 0.367E-02 0.704E-02
   -.152E+03 0.116E+01 -.132E+03   0.151E+03 -.123E+01 0.132E+03   0.670E+00 0.707E-01 -.674E+00   -.948E-02 -.539E-03 0.297E-01
   0.130E+03 0.290E+02 0.456E+03   -.130E+03 -.292E+02 -.454E+03   -.200E+00 0.351E+00 -.246E+01   0.104E-01 0.229E-02 0.858E-02
   0.135E+03 0.142E+02 -.174E+03   -.135E+03 -.138E+02 0.174E+03   -.536E+00 -.338E+00 -.158E+00   0.102E-01 0.326E-02 0.356E-01
   0.335E+02 -.114E+03 -.459E+03   -.333E+02 0.113E+03 0.457E+03   -.193E+00 0.109E+01 0.237E+01   0.759E-02 0.420E-02 0.152E-01
   0.129E+03 -.414E+00 0.198E+03   -.129E+03 0.230E+00 -.199E+03   0.274E+00 0.381E-01 0.332E-01   0.109E-01 -.108E-02 0.280E-01
   0.417E+02 0.107E+01 0.143E+03   -.415E+02 -.916E+00 -.144E+03   -.136E+00 -.295E+00 0.333E+00   -.207E-02 0.143E-02 0.261E-01
   0.266E+02 0.192E+02 -.438E+03   -.264E+02 -.190E+02 0.434E+03   -.195E+00 -.140E+00 0.349E+01   0.112E-02 -.328E-02 0.152E-01
   -.407E+02 -.176E+00 0.441E+03   0.409E+02 0.548E+00 -.437E+03   -.355E-01 -.283E+00 -.277E+01   -.518E-02 -.453E-03 0.440E-02
   -.674E+02 -.556E+01 -.133E+03   0.673E+02 0.508E+01 0.133E+03   0.700E-01 0.491E+00 -.710E-01   -.529E-02 -.606E-03 0.344E-01
   0.518E+02 -.356E+01 0.420E+03   -.518E+02 0.292E+01 -.417E+03   -.443E-02 0.142E+00 -.314E+01   -.191E-02 0.944E-03 0.545E-02
   0.947E+02 0.252E+02 -.144E+03   -.947E+02 -.262E+02 0.144E+03   0.385E-01 0.939E+00 0.202E-01   -.158E-02 -.266E-02 0.337E-01
   -.703E+02 -.196E+01 0.171E+03   0.703E+02 0.218E+01 -.171E+03   0.975E-01 0.254E+00 0.170E+00   -.730E-02 -.126E-02 0.243E-01
   -.681E+02 -.607E+01 -.418E+03   0.684E+02 0.628E+01 0.416E+03   -.302E+00 -.208E+00 0.263E+01   -.810E-03 0.380E-02 0.167E-01
   0.413E+02 0.169E+01 0.437E+03   -.405E+02 -.155E+01 -.433E+03   -.838E+00 -.284E+00 -.321E+01   -.183E-02 -.848E-03 0.245E-02
   0.331E+02 -.147E+02 -.122E+03   -.327E+02 0.146E+02 0.122E+03   -.385E+00 0.164E-01 -.474E+00   0.489E-03 0.243E-02 0.357E-01
   -.962E+02 -.828E+00 0.143E+03   0.958E+02 0.663E+00 -.144E+03   0.525E+00 0.216E+00 0.890E-01   -.768E-02 0.612E-03 0.270E-01
   -.822E+02 0.220E+01 -.459E+03   0.814E+02 -.273E+01 0.455E+03   0.759E+00 0.533E+00 0.356E+01   -.228E-02 -.339E-02 0.118E-01
   0.690E+02 -.439E+02 -.442E+03   -.684E+02 0.440E+02 0.439E+03   -.583E+00 -.153E+00 0.322E+01   0.123E-02 0.401E-02 0.182E-01
   0.517E+02 -.527E+01 0.175E+03   -.511E+02 0.507E+01 -.176E+03   -.593E+00 0.631E+00 0.152E+00   -.582E-03 -.107E-02 0.253E-01
   -.141E+03 -.429E+02 0.519E+03   0.141E+03 0.422E+02 -.515E+03   0.836E+00 0.389E-01 -.324E+01   -.660E-02 -.519E-03 0.908E-02
   -.148E+03 -.415E+02 -.132E+03   0.148E+03 0.411E+02 0.132E+03   0.269E+00 0.416E+00 -.744E+00   -.594E-02 0.165E-03 0.309E-01
   -.158E+03 0.516E+01 0.172E+03   0.157E+03 -.522E+01 -.172E+03   0.672E+00 0.429E+00 0.276E+00   -.114E-01 0.353E-03 0.281E-01
   -.131E+03 0.113E+02 -.464E+03   0.131E+03 -.107E+02 0.461E+03   0.420E+00 -.585E+00 0.311E+01   -.418E-02 -.102E-03 0.118E-01
   0.177E+03 -.625E+02 -.528E+03   -.179E+03 0.641E+02 0.529E+03   0.164E+01 -.151E+01 -.252E+00   0.383E-02 0.227E-02 0.471E-01
   0.412E+02 -.358E+02 -.913E+03   -.391E+02 0.372E+02 0.931E+03   -.209E+01 -.135E+01 -.186E+02   0.142E-01 -.436E-02 0.956E-03
   0.168E+01 0.149E+01 0.233E+02   0.576E-12 0.284E-13 0.455E-12   -.174E+01 -.143E+01 -.252E+02   0.394E-01 -.338E-01 0.181E+01

 POSITION                                       TOTAL-FORCE (eV/Angst)
      8.57631      8.29685     10.39845        -0.090164     -0.157051      0.015247
      8.55884      3.74529     15.13908         0.001048      0.000374      0.000206
      8.55803      6.03495     17.25355        -0.000378      0.002460      0.004976
      8.51616      0.79995     12.43874         0.013163     -0.175991     -0.369900
     13.51934      6.10113     15.28714        -0.004277     -0.001531      0.002090
     13.49094      1.15316     10.44749        -0.022163     -0.418166     -0.052424
     10.03344      3.28428     12.67411        -0.059217      0.380822     -0.588606
      9.99938      8.51861     17.16123         0.001250      0.003227      0.002766
      7.12524      5.81577     10.15765        -0.208628     -0.463638      0.879077
      7.12317      1.22139     14.91565        -0.000375     -0.002219     -0.003415
      8.51222      3.28036     10.20450         0.282986      0.076725      0.742796
      8.54675      8.32115     14.86356         0.000178      0.001923     -0.003859
     10.22263      8.06723     12.77991         0.258110      0.235839     -0.642481
     10.22346      3.73680     17.39404        -0.000865      0.003953     -0.003716
      5.42664      8.10481     10.20639         0.376779      0.052682      0.888510
      5.44888      3.46559     14.98677        -0.003189     -0.000158     -0.006573
      8.52843      5.75423     12.65640        -0.032071     -0.203635     -0.016246
      8.59389      1.37116     17.25234         0.000473     -0.000718      0.002077
      3.84829      7.97317     12.47259        -0.570884      0.421169     -0.402456
      4.07687      3.24365     17.33384         0.001636     -0.008380      0.003523
      3.83912      5.77107     14.77087        -0.001288      0.001461      0.004609
      3.90063      0.73891     10.00000         0.510413     -0.151094      0.402073
     10.14430      6.04433     14.91058         0.000068     -0.001552      0.002757
     10.19112      1.10470     10.13736        -0.218617      0.046987      0.388510
      6.82945      7.99424     12.66670        -0.050917      0.213232     -0.428849
      6.90661      3.63166     17.41173         0.000068      0.001106      0.002536
     11.56378      6.16986     17.22873        -0.000402      0.002685      0.005678
     11.66772      1.05372     12.57547        -0.062279     -0.090626     -0.669891
     11.73919      3.33868     10.41199        -0.271697     -0.094589      0.566471
     11.72387      8.27205     15.19223         0.000778     -0.000752      0.000578
      7.18522      3.24644     12.75390        -0.133547      0.313035     -0.404693
      7.21552      8.47655     17.18488         0.000956      0.000552      0.003243
      6.83590      5.94824     14.98395         0.000980     -0.000104      0.001485
      6.87795      0.97560     10.08695        -0.054906     -0.034032      0.168115
      5.51084      5.55012     12.48419         0.006259      0.361687     -0.354697
      5.65340      1.07417     17.17270        -0.003859     -0.000652     -0.000249
      3.51249      3.50019     12.83519        -0.162229      0.006329     -0.194879
      3.30350      8.81780     17.34854        -0.001711     -0.001487     -0.003867
      3.46798      5.87237     10.40868         0.089974     -0.240405     -0.064491
      3.43674      1.26866     15.20515        -0.001039      0.001159     -0.002916
     11.91771      8.21633     10.24534        -0.159640     -0.006170      0.642757
     11.91096      3.65411     15.06420        -0.001417     -0.000387      0.001419
      5.24135      3.36543     10.32679         0.171387      0.065766      0.115230
      5.16080      8.31689     15.14010         0.001071     -0.000982      0.000281
      5.14642      6.17519     17.38954         0.000341      0.001421     -0.000316
      5.28930      0.99064     12.60849         0.119343     -0.147458     -0.440986
      1.60538      5.84491     12.85122         0.069526     -0.141543     -0.376716
      1.50736      1.63470     17.55554         0.000141      0.002718     -0.001129
     13.72038      5.67134     10.18293         0.205292      0.087533      0.680130
     13.68169      1.13275     15.07057         0.000362      0.001305     -0.002287
      1.63456      8.33987     10.36453        -0.044363     -0.503479      0.158393
      1.76850      3.77732     15.39536         0.001788      0.000809     -0.002259
     13.76831      3.16119     12.53308         0.123300      0.475658     -0.238887
     13.59643      8.52336     17.25456         0.001098      0.001970     -0.000250
      1.99440      3.17314     10.17666        -0.118654     -0.151194      0.680824
      1.83585      8.16270     15.00796        -0.002517     -0.001385     -0.004951
     13.48051      8.37930     12.86886         0.126519      0.050335     -0.421523
     13.26642      4.10050     17.73895        -0.001732      0.002739     -0.000561
      1.75868      6.31664     17.38732         0.001413     -0.000696      0.000260
      2.02729      0.87737     12.46815        -0.022284      0.428140     -0.336899
     10.07171      5.79402     10.14663         0.136783     -0.619557      0.155453
     10.12190      1.23187     14.88862        -0.000066      0.000993     -0.001540
     11.97051      5.66181     12.67660        -0.201409      0.372150     -0.475815
     11.76833      1.39488     17.50543         0.001160      0.002689      0.000706
      3.28576      5.06754     16.66893         0.001038      0.002181     -0.003785
      5.40919      4.37999     18.44769         0.001103     -0.004182     -0.000666
    total drift:                               -0.024915      0.034919     -0.102987

  FREE ENERGIE OF THE ION-ELECTRON SYSTEM (eV)
  free  energy   TOTEN  =      -524.09049567 eV

  energy  without entropy=     -524.08680196  energy(sigma->0) =     -524.08957224

 d Force =-0.1663493E-05[-0.148E-04, 0.115E-04]  d Energy =-0.7972224E-04 0.781E-04
 d Force = 0.4434434E+00[ 0.443E+00, 0.443E+00]  d Ewald  = 0.4434434E+00-0.873E-10

 reached required accuracy - stopping structural energy minimisation