 vasp.5.4.1 05Feb16 (build Mar 19 2020 08:54:17) complex

 executed on           IFC91_ompi date 2021.11.12  22:39:36

 INCAR:
 POTCAR:    PAW_PBE Al 04Jan2001
 POTCAR:    PAW_PBE Nb_sv 25May2007
 POTCAR:    PAW_PBE Ta 17Jan2003
 POTCAR:    PAW_PBE Ti 08Apr2002
 POTCAR:   PAW_PBE Zr 08Apr2002
 POTCAR:    PAW_PBE O 08Apr2002

 POTCAR:    PAW_PBE Al 04Jan2001
   VRHFIN =Al: s2p1

   TITEL  = PAW_PBE Al 04Jan2001
   POMASS =   26.981; ZVAL   =    3.000    mass and valenz
   ENMAX  =  240.300; ENMIN  =  180.225 eV

 POTCAR:    PAW_PBE Nb_sv 25May2007
   VRHFIN =Nb: 4p5s4d

   TITEL  = PAW_PBE Nb_sv 25May2007
   POMASS =   92.910; ZVAL   =   13.000    mass and valenz
   ENMAX  =  293.235; ENMIN  =  219.927 eV

 POTCAR:    PAW_PBE Ta 17Jan2003
   VRHFIN =Ta:  6s5d

   TITEL  = PAW_PBE Ta 17Jan2003
   POMASS =  180.948; ZVAL   =    5.000    mass and valenz
   ENMAX  =  223.667; ENMIN  =  167.750 eV

 POTCAR:    PAW_PBE Ti 08Apr2002
   VRHFIN =Ti: d3 s1

   TITEL  = PAW_PBE Ti 08Apr2002
   POMASS =   47.880; ZVAL   =    4.000    mass and valenz
   ENMAX  =  178.330; ENMIN  =  133.747 eV

 POTCAR:   PAW_PBE Zr 08Apr2002
   VRHFIN =Zr: 5s4d5p

   TITEL  = PAW_PBE Zr 08Apr2002
   POMASS =   91.224; ZVAL   =    4.000    mass and valenz
   ENMAX  =  154.632; ENMIN  =  115.974 eV
   QCUT   =   -3.371; QGAM   =    6.742    optimization parameters

   Description
     l     E      TYP  RCUT    TYP  RCUT
     2   .000     23  3.000
     2   .000     23  3.000
     0   .000     23  3.000
     0  2.000     23  3.000
     1  -.400     23  3.000
     3   .000      7   .000

 POTCAR:    PAW_PBE O 08Apr2002
   VRHFIN =O: s2p4

   TITEL  = PAW_PBE O 08Apr2002
   POMASS =   16.000; ZVAL   =    6.000    mass and valenz
   ENMAX  =  400.000; ENMIN  =  300.000 eV

 Optimization of the real space projectors (new method)

 maximal supplied QI-value         = 19.84
 optimisation between [QCUT,QGAM] = [ 12.50, 25.00] = [ 43.76,175.03] Ry
 Optimized for a Real-space Cutoff    1.06 Angstroem

   l    n(q)    QCUT    max X(q) W(low)/X(q) W(high)/X(q)  e(spline)
   0      8    12.501   176.870    0.16E-03    0.12E-03    0.66E-07
   0      8    12.501   105.762    0.15E-03    0.12E-03    0.64E-07
   1      7    12.501    55.370    0.36E-03    0.38E-03    0.67E-07
   1      7    12.501    20.208    0.32E-03    0.35E-03    0.64E-07
 Optimization of the real space projectors (new method)

[...]

   l    n(q)    QCUT    max X(q) W(low)/X(q) W(high)/X(q)  e(spline)
   2     11    12.478    49.363    0.45E-03    0.34E-03    0.89E-06
   2     11    12.478    47.669    0.44E-03    0.33E-03    0.87E-06
   0     12    12.478    26.374    0.17E-03    0.37E-04    0.21E-05
   0     12    12.478    11.549    0.13E-03    0.31E-04    0.17E-05
   1     11    12.478     9.492    0.91E-05    0.64E-04    0.34E-06
 Optimization of the real space projectors (new method)

[...]

   l    n(q)    QCUT    max X(q) W(low)/X(q) W(high)/X(q)  e(spline)
   2     12    12.472     5.149    0.23E-04    0.12E-05    0.19E-06
   2     12    12.472    48.417    0.26E-03    0.15E-03    0.35E-05
   0     13    12.472    27.113    0.15E-04    0.46E-05    0.14E-06
   0     13    12.472    33.957    0.20E-04    0.33E-04    0.12E-05
   1     12    12.472    13.771    0.11E-04    0.23E-05    0.34E-06
 WARNING: PSMAXN for non-local potential too small
          PSMAXN should be >   12.5490833729506       NTYP=           5
 Optimization of the real space projectors (new method)

 maximal supplied QI-value         = 24.76
 optimisation between [QCUT,QGAM] = [ 12.38, 25.00] = [ 42.90,175.06] Ry
 Optimized for a Real-space Cutoff    1.13 Angstroem

   l    n(q)    QCUT    max X(q) W(low)/X(q) W(high)/X(q)  e(spline)
   0      8    12.378    20.381    0.16E-03    0.54E-05    0.27E-06
   0      8    12.378    15.268    0.17E-03    0.61E-05    0.29E-06
   1      8    12.378     5.964    0.38E-03    0.23E-03    0.28E-06
   1      8    12.378     5.382    0.33E-03    0.20E-03    0.25E-06
  PAW_PBE Al 04Jan2001                  :
  PAW_PBE Nb_sv 25May2007               :
  PAW_PBE Ta 17Jan2003                  :
  PAW_PBE Ti 08Apr2002                  :
 PAW_PBE Zr 08Apr2002                   :
  PAW_PBE O 08Apr2002                   :

 POSCAR: Al Nb Ta Ti Zr
  positions in direct lattice
  velocities in cartesian coordinates
 exchange correlation table for  LEXCH =        8
   RHO(1)=    0.500       N(1)  =     2000
   RHO(2)=  100.500       N(2)  =     4000

 ion  position               nearest neighbor table
   1  0.623  0.867  0.376-  34 2.83  25 2.88  24 2.88   9 2.88  13 2.90   4 2.91  61 2.93  15 3.16
                            41 3.35  17 3.40
   2  0.622  0.393  0.547-  23 2.79  31 2.80  26 2.80  33 2.81  14 2.81  10 2.90   7 2.90  62 2.96
                            18 3.13   3 3.16  17 3.18  42 3.32
   3  0.616  0.633  0.625-  32 2.84  23 2.87   8 2.89  14 2.89  33 2.90  26 2.94  27 3.05  45 3.09
                             2 3.16
   4  0.618  0.084  0.450-  31 2.80  24 2.86  34 2.87  13 2.88   1 2.91  25 2.92  10 2.92   7 2.92
                            62 2.95  12 3.15  28 3.16  46 3.24
   5  0.980  0.637  0.553-  27 2.77  30 2.82  42 2.93  56 2.96  59 3.03  52 3.06  63 3.07  54 3.08
                            47 3.10  58 3.13  57 3.34
   6  0.980  0.121  0.378-  29 2.80  28 2.80  53 2.91  41 2.96  51 3.05  55 3.05  60 3.08  57 3.37

   7  0.729  0.343  0.458-  28 2.77  29 2.83  31 2.85  17 2.89   2 2.90  11 2.90   4 2.92  62 3.01
                            42 3.04  63 3.07
   8  0.722  0.893  0.621-  30 2.62  12 2.72  32 2.74  18 2.83  27 2.86   3 2.89  64 3.00  62 3.22

   9  0.517  0.608  0.367-  35 2.84  15 2.85  17 2.87   1 2.88  11 2.89  61 2.95  43 3.10
  10  0.513  0.135  0.540-  18 2.74  36 2.76  16 2.85  12 2.89   2 2.90   4 2.92  31 2.92  46 2.94
                            62 3.04  44 3.16
  11  0.618  0.343  0.369-  24 2.75  34 2.83  31 2.87   9 2.89   7 2.90  61 2.96  43 3.27
  12  0.618  0.874  0.537-  13 2.71   8 2.72  32 2.73  23 2.79  25 2.79  10 2.89  33 2.91  62 2.92
                             4 3.15  44 3.34
  13  0.742  0.843  0.462-  12 2.71  17 2.87   4 2.88  30 2.90   1 2.90  23 2.94  28 2.94  63 2.98
                            41 3.05  57 3.27  62 3.45
  14  0.744  0.393  0.629-  27 2.72   2 2.81  64 2.84  42 2.86  18 2.88   3 2.89  58 3.08
  15  0.394  0.847  0.369-  22 2.68  19 2.76  25 2.83  34 2.84   9 2.85  39 2.98   1 3.16  46 3.43

  16  0.389  0.372  0.544-  21 2.66  26 2.71  20 2.76  33 2.84  10 2.85  37 2.88  31 2.95  40 2.98
                            45 3.45
  17  0.619  0.602  0.458-  23 2.79  33 2.81  25 2.81  31 2.85   9 2.87  13 2.87   7 2.89  61 2.95
                            35 3.03   2 3.18   1 3.40  63 3.44
  18  0.620  0.150  0.623-  10 2.74  32 2.76  26 2.78  62 2.82   8 2.83  14 2.88  36 3.01   2 3.13
                            64 3.21
  19  0.279  0.834  0.451-  15 2.76  35 2.94  46 2.96  39 2.97  25 2.99  44 3.06  60 3.07  51 3.08
                            47 3.12  56 3.20  21 3.21
  20  0.279  0.366  0.628-  65 2.00  66 2.16  16 2.76  36 2.82  52 2.98  48 2.99  26 3.00  45 3.00
                            40 3.14  59 3.16
  21  0.279  0.600  0.534-  16 2.66  35 2.84  44 2.95  47 2.96  52 2.98  37 2.98  33 3.02  45 3.08
                            56 3.14  59 3.15  19 3.21
  22  0.283  0.077  0.361-  15 2.68  46 2.97  43 2.97  34 2.99  51 3.02  55 3.10  60 3.10
  23  0.734  0.635  0.540-  27 2.72  30 2.75   2 2.79  12 2.79  17 2.79   3 2.87  13 2.94  63 2.95
                            42 3.00
  24  0.740  0.115  0.366-  29 2.73  11 2.75  28 2.85   4 2.86   1 2.88  41 3.00
  25  0.496  0.836  0.458-  35 2.78  12 2.79  17 2.81  15 2.83   1 2.88   4 2.92  19 2.99  46 2.99
                            33 3.01  44 3.04
  26  0.496  0.378  0.626-  66 2.07  36 2.70  16 2.71  18 2.78   2 2.80  45 2.85   3 2.94  20 3.00

  27  0.837  0.644  0.624-  23 2.72  14 2.72   5 2.77  58 2.78   8 2.86  30 2.92   3 3.05  54 3.15
                            42 3.35
  28  0.847  0.110  0.455-   7 2.77  62 2.80   6 2.80  24 2.85  57 2.90  13 2.94  53 2.98  29 3.15
                             4 3.16  50 3.21  41 3.36
  29  0.852  0.349  0.376-  24 2.73   6 2.80   7 2.83  53 2.94  61 2.98  49 3.07  28 3.15  63 3.25

  30  0.851  0.866  0.551-   8 2.62  23 2.75   5 2.82  54 2.84  13 2.90  27 2.92  57 2.97  62 3.02
                            50 3.09  64 3.46
  31  0.522  0.339  0.461-   2 2.80   4 2.80  17 2.85   7 2.85  35 2.86  11 2.87  10 2.92  46 2.95
                            16 2.95  43 3.11
  32  0.523  0.897  0.624-  12 2.73   8 2.74  18 2.76  36 2.79   3 2.84  44 2.89  45 3.10
  33  0.498  0.624  0.539-  35 2.79   2 2.81  17 2.81  16 2.84   3 2.90  44 2.90  12 2.91  45 2.91
                            25 3.01  21 3.02
  34  0.499  0.102  0.365-  11 2.83   1 2.83  15 2.84   4 2.87  43 2.91  46 2.98  22 2.99
  35  0.400  0.580  0.451-  25 2.78  33 2.79  21 2.84   9 2.84  31 2.86  37 2.88  39 2.93  19 2.94
                            17 3.03  43 3.08
  36  0.402  0.131  0.623-  26 2.70  10 2.76  32 2.79  20 2.82  40 2.92  18 3.01  38 3.02  44 3.22

  37  0.255  0.366  0.464-  16 2.88  35 2.88  21 2.98  47 3.02  60 3.04  43 3.05  55 3.08  46 3.08
                            52 3.09  40 3.23  39 3.39
  38  0.239  0.920  0.624-  56 2.80  44 2.85  48 2.92  40 2.93  59 3.02  36 3.02  54 3.39  45 3.44

  39  0.252  0.614  0.376-  35 2.93  19 2.97  15 2.98  47 3.07  43 3.07  51 3.07  55 3.08  37 3.39
                            49 3.53
  40  0.250  0.134  0.549-  36 2.92  38 2.93  16 2.98  48 3.01  52 3.04  44 3.06  60 3.08  20 3.14
                            56 3.15  46 3.17  37 3.23  50 3.57
  41  0.865  0.859  0.370-   6 2.96  24 3.00  61 3.05  13 3.05  57 3.06  49 3.12   1 3.35  28 3.36
                            51 3.49  63 3.53
  42  0.863  0.382  0.544-  14 2.86   5 2.93  58 2.99  23 3.00  62 3.01   7 3.04  50 3.09  63 3.11
                            53 3.18   2 3.32  27 3.35  64 3.36  52 3.58
  43  0.381  0.352  0.373-  34 2.91  22 2.97  37 3.05  39 3.07  35 3.08   9 3.10  31 3.11  55 3.26
                            11 3.27  46 3.29
  44  0.377  0.871  0.550-  38 2.85  32 2.89  33 2.90  21 2.95  25 3.04  40 3.06  19 3.06  10 3.16
                            45 3.17  36 3.22  12 3.34  56 3.36  46 3.42
  45  0.392  0.635  0.630-  66 2.09  65 2.14  26 2.85  33 2.91  20 3.00  21 3.08   3 3.09  32 3.10
                            44 3.17  59 3.39  38 3.44  16 3.45
  46  0.384  0.104  0.456-  10 2.94  31 2.95  19 2.96  22 2.97  34 2.98  25 2.99  37 3.08  40 3.17
                             4 3.24  60 3.27  43 3.29  44 3.42  15 3.43
  47  0.117  0.611  0.465-  21 2.96  37 3.02  39 3.07   5 3.10  19 3.12  56 3.13  53 3.14  49 3.15
                            57 3.17  52 3.23  63 3.42  51 3.52  55 3.80
  48  0.113  0.164  0.633-  38 2.92  50 2.97  20 2.99  40 3.01  52 3.09  54 3.16  58 3.21  64 3.60

  49  0.996  0.593  0.368-  63 3.05  29 3.07  41 3.12  47 3.15  51 3.16  55 3.23  53 3.44  39 3.53
                            61 3.65  57 3.82
  50  0.992  0.117  0.546-  48 2.97  64 3.08  30 3.09  42 3.09  54 3.14  52 3.20  57 3.21  56 3.21
                            28 3.21  53 3.28  60 3.40  62 3.56  40 3.57
[...]
         0         1         2         3         4         5         6         7         8         9
 total charge-density along one line

------------------------ aborting loop because EDIFF is reached ----------------------------------------

  FORCE on cell =-STRESS in cart. coord.  units (eV):
  Direction    XX          YY          ZZ          XY          YZ          ZX
  Alpha Z   529.78975   529.78975   529.78975
  Ewald   78700.93533 83737.16130-89827.61502  -960.49636   196.76040   333.05818
  Hartree 83258.27651 88123.87044-79378.53391  -757.22797   142.74179   299.08846
  E(xc)   -1501.60317 -1503.96702 -1492.61942    -0.19642    -0.67518    -0.28313
  Local  ************************165465.23855  1714.81669  -335.98860  -631.82468
  n-local   -62.34591   -64.73715   -93.67938     7.59274     0.02898     1.83784
  augment   449.47291   449.68798   445.39599    -1.11328     0.38424     0.21626
  Kinetic  4325.35320  4316.64203  4336.12233    -6.43446     2.39633    -3.45820
  Fock        0.00000     0.00000     0.00000     0.00000     0.00000     0.00000
  Total     -34.34901   -27.76526   -15.90111    -3.05905     5.64795    -1.36527
  in kB     -15.10408   -12.20905    -6.99210    -1.34514     2.48354    -0.60034

 VOLUME and BASIS-vectors are now :
  energy-cutoff  :      600.00
  volume of cell :     3643.60
      direct lattice vectors                 reciprocal lattice vectors
    13.771350861  0.000000000  0.000000000     0.072614518  0.000000000  0.000000000
     0.000000000  9.564481735  0.000000000     0.000000000  0.104553496  0.000000000
     0.000000000  0.000000000 27.662570434     0.000000000  0.000000000  0.036149931

  length of vectors
    13.771350861  9.564481735 27.662570434     0.072614518  0.104553496  0.036149931

 FORCES acting on ions
    electron-ion (+dipol)            ewald-force                    non-local-force                 convergence-correction
   -.467E+02 -.340E+02 0.379E+03   0.465E+02 0.338E+02 -.378E+03   0.935E-01 0.879E-01 -.804E+00   -.398E-02 -.481E-02 0.130E-01
   -.223E+02 -.321E+02 -.127E+03   0.226E+02 0.322E+02 0.126E+03   -.227E+00 -.100E+00 0.393E+00   0.499E-02 0.367E-02 0.173E-01
   0.186E+02 0.115E+02 -.364E+03   -.187E+02 -.110E+02 0.363E+03   0.128E+00 -.483E+00 0.109E+01   0.862E-02 -.456E-03 0.154E-02
   0.229E+01 0.614E+01 0.194E+03   -.229E+01 -.604E+01 -.194E+03   -.465E-01 -.273E+00 -.826E+00   -.145E-02 -.152E-03 0.270E-01
   -.618E+02 0.517E+01 -.110E+03   0.614E+02 -.472E+01 0.111E+03   0.423E+00 -.448E+00 -.780E+00   -.104E-01 -.164E-02 0.201E-01
   -.466E+02 0.477E+01 0.322E+03   0.459E+02 -.417E+01 -.319E+03   0.657E+00 -.102E+01 -.231E+01   0.738E-02 0.464E-03 0.126E-01
   -.379E+03 -.519E+01 0.452E+03   0.379E+03 0.584E+01 -.453E+03   0.172E+00 -.316E+00 0.727E+00   0.178E-02 0.205E-01 0.134E+00
   -.298E+03 0.339E+02 -.165E+04   0.297E+03 -.328E+02 0.165E+04   0.126E+01 -.104E+01 0.416E+01   0.345E-01 -.253E-01 0.563E-02
   0.102E+03 -.986E+01 0.163E+04   -.102E+03 0.879E+01 -.162E+04   -.559E+00 0.594E+00 -.430E+01   -.110E-01 0.335E-02 0.533E-01
   0.202E+03 0.283E+02 -.398E+03   -.202E+03 -.283E+02 0.400E+03   0.236E+00 0.184E-02 -.132E+01   0.150E-01 0.694E-02 0.789E-01
   -.537E+02 0.138E+03 0.170E+04   0.545E+02 -.138E+03 -.169E+04   -.498E+00 -.417E+00 -.277E+01   -.207E-01 0.258E-01 0.599E-01
   0.109E+03 0.123E+03 -.410E+03   -.108E+03 -.123E+03 0.411E+03   -.739E+00 0.121E+00 -.277E+00   0.345E-01 -.168E-01 0.904E-01
   -.417E+03 -.224E+01 0.717E+03   0.418E+03 0.106E+01 -.716E+03   -.737E+00 0.146E+01 -.162E+01   0.706E-02 -.203E-01 0.140E+00
   -.199E+03 -.319E+02 -.150E+04   0.200E+03 0.315E+02 0.150E+04   -.119E+01 0.412E+00 0.320E+01   0.257E-01 0.269E-01 0.637E-02
   0.298E+03 -.117E+03 0.153E+04   -.298E+03 0.117E+03 -.152E+04   0.276E+00 -.384E+00 -.423E+01   -.103E-01 -.692E-02 0.464E-01
   0.358E+03 -.849E+02 -.389E+03   -.358E+03 0.843E+02 0.389E+03   0.820E-01 0.516E+00 -.731E+00   0.784E-02 0.623E-02 0.688E-01
   -.124E+02 0.810E+00 0.178E+03   0.119E+02 -.734E+00 -.179E+03   0.531E+00 -.235E+00 0.292E-01   0.388E-02 -.888E-03 0.441E-01
   -.617E+01 -.275E+02 -.657E+03   0.570E+01 0.274E+02 0.654E+03   0.457E+00 0.754E-01 0.239E+01   0.534E-02 0.135E-02 0.679E-02
   0.171E+03 -.832E+01 0.160E+03   -.170E+03 0.815E+01 -.161E+03   -.117E+01 0.553E+00 0.733E+00   -.133E-03 -.200E-02 0.293E-01
   0.179E+03 0.885E+02 -.510E+03   -.178E+03 -.877E+02 0.507E+03   -.545E+00 -.708E+00 0.296E+01   -.302E-02 -.114E-02 0.157E-02
   0.132E+03 -.683E+02 -.965E+02   -.132E+03 0.682E+02 0.961E+02   -.104E+00 0.468E-01 0.351E+00   -.155E-02 -.429E-02 0.172E-01
   0.117E+03 -.551E+02 0.467E+03   -.116E+03 0.552E+02 -.464E+03   -.823E+00 -.252E+00 -.269E+01   -.259E-02 -.573E-03 0.117E-01
   -.108E+03 0.667E+02 -.147E+03   0.108E+03 -.662E+02 0.146E+03   0.133E+00 -.490E+00 0.520E+00   0.945E-02 0.893E-03 0.300E-01
   -.100E+03 0.599E+02 0.522E+03   0.996E+02 -.594E+02 -.518E+03   0.457E+00 -.463E+00 -.277E+01   -.131E-02 -.959E-03 0.141E-01
   0.825E+02 -.138E+02 0.157E+03   -.834E+02 0.132E+02 -.157E+03   0.732E+00 0.728E+00 -.335E+00   0.368E-03 -.301E-02 0.269E-01
   -.453E+02 -.593E+01 -.467E+03   0.451E+02 0.616E+01 0.466E+03   0.258E+00 -.222E+00 0.121E+01   0.865E-02 -.149E-03 0.352E-02
   -.128E+03 -.435E+01 -.443E+03   0.127E+03 0.436E+01 0.441E+03   0.330E+00 -.130E-01 0.228E+01   0.472E-04 -.291E-04 0.965E-03
   -.165E+03 0.744E+01 0.187E+03   0.165E+03 -.717E+01 -.188E+03   0.362E+00 -.403E+00 0.276E+00   0.486E-02 0.578E-03 0.420E-01
   -.151E+03 -.549E+01 0.478E+03   0.150E+03 0.545E+01 -.475E+03   0.698E+00 -.742E-01 -.258E+01   0.676E-02 0.540E-02 0.200E-01
   -.201E+03 -.346E+01 -.159E+03   0.200E+03 0.370E+01 0.158E+03   0.735E+00 -.238E+00 0.385E+00   -.339E-02 -.685E-02 0.265E-01
   0.833E+02 0.226E+01 0.171E+03   -.835E+02 -.179E+01 -.172E+03   -.618E-01 -.160E+00 0.238E-01   0.515E-03 0.330E-02 0.293E-01
   0.117E+03 0.326E+02 -.529E+03   -.117E+03 -.327E+02 0.527E+03   -.253E+00 0.110E+00 0.226E+01   0.950E-02 -.130E-02 0.520E-02
   0.587E+02 -.170E+02 -.155E+03   -.592E+02 0.172E+02 0.155E+03   0.450E+00 -.210E+00 0.439E+00   0.633E-02 -.253E-02 0.211E-01
   0.360E+02 -.726E+00 0.501E+03   -.366E+02 0.656E+00 -.498E+03   0.616E+00 0.364E-01 -.246E+01   -.663E-02 -.120E-02 0.134E-01
   0.130E+03 0.709E+01 0.159E+03   -.129E+03 -.735E+01 -.158E+03   -.748E+00 0.640E+00 -.367E+00   -.956E-03 -.950E-03 0.270E-01
   0.113E+03 0.619E+02 -.494E+03   -.112E+03 -.619E+02 0.491E+03   -.600E+00 0.498E-01 0.286E+01   0.746E-02 0.515E-02 0.650E-02
   0.127E+03 0.998E+01 0.180E+03   -.127E+03 -.955E+01 -.180E+03   0.213E-02 -.431E+00 -.427E+00   -.192E-02 0.167E-02 0.267E-01
   0.554E+02 -.156E+01 -.415E+03   -.560E+02 0.197E+01 0.413E+03   0.615E+00 -.411E+00 0.252E+01   -.360E-02 0.172E-03 0.667E-02
   0.126E+03 0.389E+02 0.425E+03   -.126E+03 -.387E+02 -.422E+03   0.177E+00 -.460E+00 -.274E+01   0.499E-03 0.280E-03 0.159E-01
   0.134E+03 0.471E+02 -.141E+03   -.134E+03 -.468E+02 0.142E+03   -.747E-01 -.261E+00 -.926E+00   -.287E-02 0.628E-02 0.152E-01
   -.992E+02 -.118E+01 0.486E+03   0.995E+02 0.117E+01 -.482E+03   -.492E+00 0.306E-01 -.313E+01   0.506E-02 -.359E-02 0.160E-01
   -.155E+03 -.304E+00 -.126E+03   0.154E+03 0.201E+00 0.127E+03   0.621E+00 0.978E-01 -.595E+00   0.580E-03 0.538E-02 0.266E-01
   0.130E+03 0.288E+02 0.453E+03   -.130E+03 -.290E+02 -.450E+03   -.247E+00 0.324E+00 -.249E+01   -.304E-02 0.162E-02 0.161E-01
   0.138E+03 0.201E+02 -.178E+03   -.137E+03 -.196E+02 0.178E+03   -.691E+00 -.486E+00 -.673E-01   0.502E-02 -.227E-02 0.153E-01
   0.162E+02 -.112E+03 -.434E+03   -.167E+02 0.110E+03 0.431E+03   0.480E+00 0.182E+01 0.247E+01   0.683E-02 -.289E-02 0.121E-02
   0.129E+03 -.188E+01 0.196E+03   -.129E+03 0.168E+01 -.196E+03   0.290E+00 0.721E-01 0.146E+00   -.204E-02 0.130E-02 0.254E-01
   0.355E+02 0.139E+01 0.137E+03   -.354E+02 -.132E+01 -.138E+03   -.146E-01 -.197E+00 0.389E+00   -.990E-03 -.311E-02 0.286E-01
   0.290E+02 0.185E+02 -.425E+03   -.287E+02 -.184E+02 0.421E+03   -.272E+00 -.141E+00 0.328E+01   -.118E-01 0.691E-02 0.238E-02
   -.416E+02 -.279E+00 0.439E+03   0.419E+02 0.647E+00 -.436E+03   -.607E-01 -.266E+00 -.280E+01   0.442E-02 -.867E-03 0.151E-01
   -.692E+02 -.505E+01 -.132E+03   0.690E+02 0.458E+01 0.132E+03   0.213E+00 0.460E+00 -.334E-01   -.764E-02 0.257E-02 0.232E-01
   0.508E+02 -.313E+01 0.418E+03   -.508E+02 0.251E+01 -.414E+03   -.137E-01 0.155E+00 -.312E+01   0.250E-02 0.122E-02 0.144E-01
   0.615E+02 0.555E+01 -.141E+03   -.610E+02 -.582E+01 0.142E+03   -.434E+00 0.265E+00 -.637E+00   -.843E-02 0.319E-03 0.188E-01
   -.723E+02 -.238E+01 0.171E+03   0.723E+02 0.260E+01 -.171E+03   0.129E+00 0.201E+00 0.163E+00   0.166E-02 0.102E-02 0.340E-01
   -.584E+02 -.347E+01 -.414E+03   0.590E+02 0.377E+01 0.411E+03   -.549E+00 -.297E+00 0.300E+01   -.156E-01 -.372E-02 0.243E-02
   0.402E+02 0.133E+01 0.434E+03   -.395E+02 -.116E+01 -.430E+03   -.849E+00 -.300E+00 -.322E+01   0.520E-03 -.961E-03 0.143E-01
   0.297E+02 -.588E+01 -.113E+03   -.292E+02 0.608E+01 0.114E+03   -.480E+00 -.203E+00 -.377E+00   -.932E-02 -.245E-02 0.171E-01
   -.968E+02 0.121E-01 0.143E+03   0.964E+02 -.173E+00 -.143E+03   0.491E+00 0.228E+00 0.319E-01   -.224E-02 -.913E-03 0.346E-01
   -.846E+02 0.166E+01 -.447E+03   0.836E+02 -.205E+01 0.443E+03   0.992E+00 0.378E+00 0.368E+01   -.811E-02 0.441E-02 -.910E-03
   0.910E+02 -.391E+02 -.358E+03   -.890E+02 0.383E+02 0.357E+03   -.202E+01 0.791E+00 0.117E+01   -.129E-01 -.606E-02 0.372E-02
   0.497E+02 -.553E+01 0.174E+03   -.491E+02 0.527E+01 -.175E+03   -.618E+00 0.611E+00 0.495E-01   -.176E-02 0.239E-02 0.256E-01
   -.141E+03 -.431E+02 0.517E+03   0.140E+03 0.424E+02 -.514E+03   0.829E+00 0.672E-01 -.325E+01   -.229E-02 0.692E-03 0.161E-01
   -.145E+03 -.412E+02 -.126E+03   0.145E+03 0.407E+02 0.127E+03   0.193E+00 0.461E+00 -.745E+00   0.580E-02 -.877E-03 0.271E-01
   -.159E+03 0.418E+01 0.172E+03   0.158E+03 -.422E+01 -.173E+03   0.630E+00 0.426E+00 0.171E+00   -.193E-02 -.429E-03 0.403E-01
   -.133E+03 0.922E+01 -.458E+03   0.132E+03 -.875E+01 0.455E+03   0.506E+00 -.465E+00 0.314E+01   0.148E-02 0.725E-04 0.890E-03
   0.137E+03 -.822E+02 -.787E+03   -.137E+03 0.856E+02 0.804E+03   0.294E+00 -.337E+01 -.169E+02   -.913E-02 -.604E-02 -.326E-02
   0.736E+01 0.126E+02 -.889E+03   -.632E+01 -.134E+02 0.908E+03   -.106E+01 0.801E+00 -.192E+02   0.187E-01 -.638E-02 -.150E-01
   0.546E+00 0.261E+01 0.438E+02   -.142E-12 0.817E-13 0.136E-11   -.630E+00 -.261E+01 -.454E+02   0.806E-01 0.403E-02 0.162E+01

 POSITION                                       TOTAL-FORCE (eV/Angst)
      8.57631      8.29685     10.39845        -0.086968     -0.146048      0.015727
      8.61326      3.75849     15.08597         0.000005      0.001035      0.001395
      8.53246      6.04867     17.26539        -0.008587     -0.002051     -0.000907
      8.51616      0.79995     12.43874        -0.047078     -0.176086     -0.284217
     13.45350      6.10341     15.24814        -0.002242     -0.001622      0.000109
     13.49094      1.15316     10.44749        -0.024502     -0.419945     -0.056761
     10.03344      3.28428     12.67411        -0.055823      0.353416     -0.739362
      9.98115      8.51476     17.16554        -0.006733      0.007094      0.000132
      7.12524      5.81577     10.15765        -0.144566     -0.470751      0.904515
      7.07541      1.24458     14.94514         0.002321      0.001222     -0.003797
      8.51222      3.28036     10.20450         0.296245      0.073430      0.735500
      8.52917      8.33286     14.87744        -0.000122      0.002872     -0.005335
     10.22263      8.06723     12.77991         0.215136      0.261562     -0.522052
     10.23938      3.71582     17.37272        -0.004766      0.002604      0.002074
      5.42664      8.10481     10.20639         0.273407      0.060478      0.935611
      5.40502      3.52519     15.05836        -0.003794      0.000404      0.002806
      8.52843      5.75423     12.65640         0.047355     -0.160225     -0.116605
      8.57628      1.32851     17.25222         0.000532      0.003457     -0.001055
      3.84829      7.97317     12.47259        -0.379202      0.381877     -0.388970
      3.85195      3.68863     17.38934         0.000089     -0.004811     -0.000701
      3.87743      5.66005     14.86807        -0.000998     -0.002245      0.001025
      3.90063      0.73891     10.00000         0.505875     -0.155900      0.371648
     10.16569      6.07997     14.92824         0.002310     -0.001466     -0.000931
     10.19112      1.10470     10.13736        -0.252369      0.047366      0.363182
      6.82945      7.99424     12.66670        -0.118501      0.197916     -0.261344
      6.97654      3.60381     17.30789        -0.002785      0.001530      0.007444
     11.56771      6.15150     17.26154         0.000598     -0.001478      0.004275
     11.66772      1.05372     12.57547        -0.042805     -0.139205     -0.629512
     11.73919      3.33868     10.41199        -0.253329     -0.117381      0.551554
     11.74831      8.31263     15.24997        -0.000939      0.000889      0.000090
      7.18522      3.24644     12.75390        -0.243233      0.311718     -0.407724
      7.19325      8.53892     17.24330         0.000224      0.002434     -0.000271
      6.85483      5.93446     14.95520         0.001245     -0.000336     -0.000058
      6.87795      0.97560     10.08695        -0.050860     -0.035499      0.187914
      5.51084      5.55012     12.48419        -0.041598      0.383439     -0.288099
      5.49744      1.19363     17.15023        -0.001089      0.000454     -0.001003
      3.51249      3.50019     12.83519         0.014557     -0.000497     -0.353859
      3.20375      8.84994     17.27435        -0.002559     -0.001451      0.001964
      3.46798      5.87237     10.40868         0.091359     -0.227233     -0.056624
      3.45298      1.33099     15.19240        -0.000972     -0.000859      0.001771
     11.91771      8.21633     10.24534        -0.161444      0.021227      0.645281
     11.88732      3.62792     15.03161        -0.000823     -0.000244      0.001206
      5.24135      3.36543     10.32679         0.129973      0.056623      0.159082
      5.14690      8.30688     15.21603         0.001009     -0.000074     -0.000584
      5.36221      6.13050     17.55808         0.001905      0.004215     -0.000874
      5.28930      0.99064     12.60849         0.090689     -0.119789     -0.422540
      1.60538      5.84491     12.85122         0.151484     -0.133109     -0.353514
      1.58033      1.65073     17.51819        -0.003630      0.001105      0.001399
     13.72038      5.67134     10.18293         0.191118      0.101184      0.648199
     13.68965      1.10639     15.08626        -0.000669     -0.004276     -0.000570
      1.63456      8.33987     10.36453        -0.027916     -0.471223      0.169629
      1.66686      3.76577     15.29986        -0.000461      0.001677     -0.000053
     13.76831      3.16119     12.53308         0.130565      0.423373     -0.280426
     13.72710      8.47898     17.30492        -0.000505      0.000645      0.004238
      1.99440      3.17314     10.17666        -0.130378     -0.136000      0.647404
      1.85046      8.14530     14.94630        -0.002332     -0.001312     -0.000423
     13.48051      8.37930     12.86886         0.099929      0.066365     -0.458703
     13.24316      3.99544     17.69502        -0.003386     -0.001699      0.006493
      1.85317      6.06376     17.27539        -0.008188     -0.000277     -0.001281
      2.02729      0.87737     12.46815        -0.010134      0.354695     -0.324433
     10.07171      5.79402     10.14663         0.119939     -0.582155      0.163943
     10.10960      1.21529     14.88772        -0.002514      0.000599      0.001487
     11.97051      5.66181     12.67660        -0.238987      0.388228     -0.578503
     11.76897      1.32725     17.48256        -0.001661     -0.001468      0.000378
      3.44912      5.47342     18.38564         0.001618      0.001972      0.003970
      5.59560      4.14859     18.46854        -0.000040     -0.000393     -0.000349
    total drift:                               -0.003018      0.001277     -0.021628

  FREE ENERGIE OF THE ION-ELECTRON SYSTEM (eV)
  free  energy   TOTEN  =      -524.42639645 eV

  energy  without entropy=     -524.42887884  energy(sigma->0) =     -524.42701705

 d Force =-0.2026695E-05[-0.141E-04, 0.100E-04]  d Energy =-0.8203422E-04 0.800E-04
 d Force =-0.4645252E+00[-0.465E+00,-0.465E+00]  d Ewald  =-0.4645249E+00-0.333E-06

 reached required accuracy - stopping structural energy minimisation