 vasp.5.4.1 05Feb16 (build Mar 19 2020 08:54:17) complex

 executed on           IFC91_ompi date 2021.10.24  13:04:37

 INCAR:
 POTCAR:    PAW_PBE Al 04Jan2001
 POTCAR:    PAW_PBE Nb_sv 25May2007
 POTCAR:    PAW_PBE Ta 17Jan2003
 POTCAR:    PAW_PBE Ti 08Apr2002
 POTCAR:   PAW_PBE Zr 08Apr2002
 POTCAR:    PAW_PBE O 08Apr2002

 POTCAR:    PAW_PBE Al 04Jan2001
   VRHFIN =Al: s2p1

   TITEL  = PAW_PBE Al 04Jan2001
   POMASS =   26.981; ZVAL   =    3.000    mass and valenz
   ENMAX  =  240.300; ENMIN  =  180.225 eV

 POTCAR:    PAW_PBE Nb_sv 25May2007
   VRHFIN =Nb: 4p5s4d

   TITEL  = PAW_PBE Nb_sv 25May2007
   POMASS =   92.910; ZVAL   =   13.000    mass and valenz
   ENMAX  =  293.235; ENMIN  =  219.927 eV

 POTCAR:    PAW_PBE Ta 17Jan2003
   VRHFIN =Ta:  6s5d

   TITEL  = PAW_PBE Ta 17Jan2003
   POMASS =  180.948; ZVAL   =    5.000    mass and valenz
   ENMAX  =  223.667; ENMIN  =  167.750 eV

 POTCAR:    PAW_PBE Ti 08Apr2002
   VRHFIN =Ti: d3 s1

   TITEL  = PAW_PBE Ti 08Apr2002
   POMASS =   47.880; ZVAL   =    4.000    mass and valenz
   ENMAX  =  178.330; ENMIN  =  133.747 eV

 POTCAR:   PAW_PBE Zr 08Apr2002
   VRHFIN =Zr: 5s4d5p

   TITEL  = PAW_PBE Zr 08Apr2002
   POMASS =   91.224; ZVAL   =    4.000    mass and valenz
   ENMAX  =  154.632; ENMIN  =  115.974 eV
   QCUT   =   -3.371; QGAM   =    6.742    optimization parameters

   Description
     l     E      TYP  RCUT    TYP  RCUT
     2   .000     23  3.000
     2   .000     23  3.000
     0   .000     23  3.000
     0  2.000     23  3.000
     1  -.400     23  3.000
     3   .000      7   .000

 POTCAR:    PAW_PBE O 08Apr2002
   VRHFIN =O: s2p4

   TITEL  = PAW_PBE O 08Apr2002
   POMASS =   16.000; ZVAL   =    6.000    mass and valenz
   ENMAX  =  400.000; ENMIN  =  300.000 eV

 WARNING: PSMAXN for non-local potential too small
          PSMAXN should be >   12.5490833729506       NTYP=           5
  PAW_PBE Al 04Jan2001                  :
  PAW_PBE Nb_sv 25May2007               :
  PAW_PBE Ta 17Jan2003                  :
  PAW_PBE Ti 08Apr2002                  :
 PAW_PBE Zr 08Apr2002                   :
  PAW_PBE O 08Apr2002                   :

 POSCAR: Al Nb Ta Ti Zr
  positions in direct lattice
  velocities in cartesian coordinates
 exchange correlation table for  LEXCH =        8
   RHO(1)=    0.500       N(1)  =     2000
   RHO(2)=  100.500       N(2)  =     4000

 ion  position               nearest neighbor table
   1  0.623  0.867  0.376-  34 2.83  25 2.88  24 2.88   9 2.88  13 2.90   4 2.91  61 2.93  15 3.16
                            41 3.35  17 3.40
   2  0.623  0.402  0.546-  31 2.79  33 2.80   3 2.88   7 2.89  23 2.89  26 2.89  14 2.91  10 2.96
                            62 2.98  17 3.10  42 3.34
   3  0.636  0.629  0.614-  75 1.89  23 2.63  32 2.68  14 2.69   8 2.69  33 2.88   2 2.88  27 2.90
                            26 3.03  12 3.07
   4  0.618  0.084  0.450-  31 2.80  24 2.86  34 2.87  13 2.88   1 2.91  25 2.92   7 2.92  62 2.99
                            10 3.08  28 3.16  46 3.24
   5  0.975  0.638  0.552-  30 2.84  27 2.89  42 2.93  56 2.94  63 3.01  52 3.03  47 3.12  23 3.13
                            59 3.17  54 3.28  57 3.32  58 3.37
   6  0.980  0.121  0.378-  29 2.80  28 2.80  53 2.91  41 2.96  51 3.05  55 3.05  60 3.08  57 3.37

   7  0.729  0.343  0.458-  28 2.77  29 2.83  31 2.85   2 2.89  17 2.89  11 2.90   4 2.92  63 3.07
                            62 3.08  42 3.12
   8  0.718  0.883  0.623-  77 2.09  71 2.11  18 2.68  30 2.68   3 2.69  12 2.71  27 2.73  32 2.77
                            64 3.01  62 3.26
   9  0.517  0.608  0.367-  35 2.84  15 2.85  17 2.87   1 2.88  11 2.89  61 2.95  43 3.10
  10  0.508  0.140  0.545-  16 2.77  36 2.88  18 2.89   2 2.96  12 2.98  31 3.01  46 3.01  62 3.04
                             4 3.08  44 3.10
  11  0.618  0.343  0.369-  24 2.75  34 2.83  31 2.87   9 2.89   7 2.90  61 2.96  43 3.27
  12  0.613  0.867  0.541-   8 2.71  33 2.80  25 2.81  13 2.82  23 2.86  32 2.88  62 2.97  10 2.98
                             3 3.07  44 3.27
  13  0.742  0.843  0.462-  12 2.82  23 2.85  17 2.87   4 2.88   1 2.90  28 2.94  63 2.98  30 3.04
                            41 3.05  57 3.27
  14  0.733  0.394  0.635-  76 1.96  74 1.99   3 2.69   2 2.91  27 2.96  42 3.03  64 3.07  18 3.09
                            58 3.11
  15  0.394  0.847  0.369-  22 2.68  19 2.76  25 2.83  34 2.84   9 2.85  39 2.98   1 3.16  46 3.43

  16  0.387  0.372  0.545-  21 2.63  10 2.77  26 2.80  20 2.82  33 2.88  37 2.89  40 2.92  31 2.98

  17  0.619  0.602  0.458-  33 2.79  25 2.81  31 2.85   9 2.87  13 2.87  23 2.87   7 2.89  61 2.95
                            35 3.03   2 3.10   1 3.40  63 3.44
  18  0.615  0.119  0.634-  72 2.00  71 2.06  74 2.06   8 2.68  10 2.89  32 2.92  36 2.97  62 2.99
                            26 3.04  14 3.09  64 3.30
  19  0.279  0.834  0.451-  15 2.76  35 2.94  46 2.96  39 2.97  44 2.98  25 2.99  60 3.07  51 3.08
                            47 3.12  21 3.24  56 3.28
  20  0.276  0.348  0.630-  69 2.00  70 2.04  67 2.15  16 2.82  36 2.94  48 3.04  26 3.07  45 3.07
                            40 3.08  52 3.13  59 3.17
  21  0.276  0.592  0.533-  16 2.63  35 2.85  45 2.90  37 2.91  47 2.91  52 2.99  33 3.04  44 3.07
                            56 3.07  19 3.24  59 3.39
  22  0.283  0.077  0.361-  15 2.68  46 2.97  43 2.97  34 2.99  51 3.02  55 3.10  60 3.10
  23  0.749  0.642  0.538-   3 2.63  30 2.76  63 2.79  13 2.85  12 2.86  17 2.87   2 2.89  27 2.93
                            42 3.01   5 3.13
  24  0.740  0.115  0.366-  29 2.73  11 2.75  28 2.85   4 2.86   1 2.88  41 3.00
  25  0.496  0.836  0.458-  35 2.78  17 2.81  12 2.81  15 2.83   1 2.88   4 2.92  33 2.94  44 2.98
                            19 2.99  46 2.99
  26  0.497  0.387  0.630-  70 1.96  74 2.04  75 2.25  16 2.80   2 2.89   3 3.03  18 3.04  20 3.07
                            36 3.07  45 3.12
  27  0.842  0.662  0.633-  76 1.99  77 2.10  68 2.14   8 2.73  58 2.81   5 2.89   3 2.90  23 2.93
                            14 2.96  30 3.01  54 3.11
  28  0.847  0.110  0.455-   7 2.77   6 2.80  24 2.85  57 2.90  62 2.92  13 2.94  53 2.98  50 3.08
                            29 3.15   4 3.16  41 3.36
  29  0.852  0.349  0.376-  24 2.73   6 2.80   7 2.83  53 2.94  61 2.98  49 3.07  28 3.15  63 3.25

  30  0.857  0.880  0.555-  77 2.25   8 2.68  23 2.76   5 2.84  50 2.94  62 2.99  57 3.00  27 3.01
                            13 3.04  54 3.23  64 3.28
  31  0.522  0.339  0.461-   2 2.79   4 2.80  17 2.85   7 2.85  35 2.86  11 2.87  46 2.95  16 2.98
                            10 3.01  43 3.11
  32  0.519  0.847  0.633-  72 2.00  65 2.07  75 2.18   3 2.68   8 2.77  12 2.88  36 2.91  45 2.92
                            18 2.92  44 3.14
  33  0.495  0.629  0.537-  35 2.74  17 2.79  12 2.80   2 2.80  16 2.88   3 2.88  44 2.90  25 2.94
                            21 3.04  45 3.13
  34  0.499  0.102  0.365-  11 2.83   1 2.83  15 2.84   4 2.87  43 2.91  46 2.98  22 2.99
  35  0.400  0.580  0.451-  33 2.74  25 2.78   9 2.84  21 2.85  31 2.86  37 2.88  39 2.93  19 2.94
                            17 3.03  43 3.08
  36  0.401  0.098  0.633-  72 1.96  70 2.02  67 2.05  65 2.16  10 2.88  32 2.91  20 2.94  18 2.97
                            38 2.99  26 3.07  40 3.15  44 3.22
  37  0.255  0.366  0.464-  35 2.88  16 2.89  21 2.91  47 3.02  60 3.04  43 3.05  55 3.08  46 3.08
                            52 3.13  40 3.17  39 3.39
  38  0.226  0.913  0.635-  73 1.88  65 2.03  67 2.07  56 2.86  54 2.89  36 2.99  48 3.02  59 3.16
                            45 3.16  44 3.22  40 3.26
  39  0.252  0.614  0.376-  35 2.93  19 2.97  15 2.98  47 3.07  43 3.07  51 3.07  55 3.08  37 3.39
                            49 3.53
  40  0.253  0.137  0.547-  67 2.37  16 2.92  44 3.01  60 3.06  20 3.08  52 3.10  46 3.12  36 3.15
                            37 3.17  48 3.22  38 3.26  56 3.27  50 3.58
  41  0.865  0.859  0.370-   6 2.96  24 3.00  61 3.05  13 3.05  57 3.06  49 3.12   1 3.35  28 3.36
                            51 3.49  63 3.53
  42  0.864  0.376  0.548-   5 2.93  23 3.01  62 3.02  14 3.03  58 3.10  50 3.11   7 3.12  63 3.22
                            53 3.24   2 3.34  52 3.44  64 3.47
  43  0.381  0.352  0.373-  34 2.91  22 2.97  37 3.05  39 3.07  35 3.08   9 3.10  31 3.11  55 3.26
                            11 3.27  46 3.29
  44  0.375  0.877  0.546-  65 2.32  33 2.90  19 2.98  25 2.98  40 3.01  21 3.07  10 3.10  32 3.14
                            45 3.16  36 3.22  38 3.22  12 3.27  46 3.31  56 3.32
  45  0.360  0.646  0.628-  69 2.07  75 2.11  65 2.22  21 2.90  32 2.92  20 3.07  26 3.12  59 3.12
                            33 3.13  38 3.16  44 3.16
  46  0.384  0.104  0.456-  31 2.95  19 2.96  22 2.97  34 2.98  25 2.99  10 3.01  37 3.08  40 3.12
                             4 3.24  60 3.27  43 3.29  44 3.31  15 3.43
  47  0.117  0.611  0.465-  21 2.91  37 3.02  39 3.07  19 3.12   5 3.12  56 3.13  53 3.14  49 3.15
                            57 3.17  52 3.21  63 3.42  51 3.52  55 3.80
  48  0.095  0.167  0.632-  66 2.09  67 2.20  50 2.98  38 3.02  20 3.04  52 3.09  54 3.11  58 3.14
                            40 3.22  64 3.33
  49  0.996  0.593  0.368-  63 3.05  29 3.07  41 3.12  47 3.15  51 3.16  55 3.23  53 3.44  39 3.53
                            61 3.65  57 3.82
  50  0.994  0.112  0.539-  30 2.94  48 2.98  57 3.04  28 3.08  42 3.11  53 3.16  52 3.17  60 3.23
                            56 3.25  64 3.35  40 3.58  62 3.67  54 3.68
  51  0.119  0.872  0.375-  60 3.00  22 3.02   6 3.05  39 3.07  19 3.08  57 3.16  49 3.16  41 3.49
                            47 3.52
  52  0.114  0.392  0.552-  21 2.99   5 3.03  59 3.09  48 3.09  40 3.10  37 3.13  20 3.13  50 3.17
                            47 3.21  53 3.21  42 3.44  58 3.44
  53  1.000  0.331  0.453-   6 2.91  29 2.94  28 2.98  60 3.06  63 3.08  55 3.09  47 3.14  50 3.16
                            52 3.21  42 3.24  49 3.44
  54  0.019  0.862  0.639-  77 2.09  73 2.17  68 2.19  38 2.89  59 2.90  56 3.07  48 3.11  27 3.11
                            30 3.23   5 3.28  64 3.38  50 3.68
  55  0.145  0.332  0.368-   6 3.05  37 3.08  39 3.08  53 3.09  22 3.10  49 3.23  60 3.24  43 3.26
                            47 3.80
  56  0.135  0.840  0.545-  38 2.86   5 2.94  54 3.07  21 3.07  57 3.11  47 3.13  50 3.25  40 3.27
                            19 3.28  59 3.30  44 3.32  60 3.56
  57  0.979  0.876  0.465-  28 2.90  30 3.00  50 3.04  41 3.06  56 3.11  63 3.11  60 3.13  51 3.16
                            47 3.17  13 3.27   5 3.32   6 3.37  49 3.82
  58  0.957  0.423  0.648-  66 2.06  76 2.13  68 2.19  27 2.81  59 3.06  42 3.10  14 3.11  48 3.14
                            64 3.19   5 3.37  52 3.44
  59  0.135  0.610  0.634-  69 2.13  73 2.18  68 2.19  54 2.90  58 3.06  52 3.09  45 3.12  38 3.16
                            20 3.17   5 3.17  56 3.30  21 3.39
  60  0.147  0.092  0.451-  51 3.00  37 3.04  53 3.06  40 3.06  19 3.07   6 3.08  22 3.10  57 3.13
                            50 3.23  55 3.24  46 3.27  56 3.56
  61  0.731  0.606  0.367-   1 2.93  17 2.95   9 2.95  11 2.96  29 2.98  41 3.05  63 3.17  49 3.65

[...]

 FORCES acting on ions
    electron-ion (+dipol)            ewald-force                    non-local-force                 convergence-correction
   -.477E+02 -.349E+02 0.435E+03   0.476E+02 0.346E+02 -.434E+03   0.795E-01 0.117E+00 -.820E+00   -.815E-02 -.416E-02 0.455E-02
   -.283E+02 -.264E+02 -.232E+02   0.282E+02 0.265E+02 0.224E+02   0.116E+00 -.111E+00 0.782E+00   -.269E-02 0.179E-02 0.776E-02
   -.175E+02 0.247E+02 -.240E+03   0.203E+02 -.225E+02 0.239E+03   -.281E+01 -.225E+01 0.132E+01   -.139E-02 0.611E-03 0.198E-02
   0.179E+01 0.584E+01 0.263E+03   -.159E+01 -.562E+01 -.263E+03   -.258E+00 -.275E+00 -.208E+00   -.779E-02 -.607E-03 0.124E-01
   -.665E+02 0.143E+02 0.124E+01   0.660E+02 -.142E+02 -.174E+01   0.525E+00 -.920E-01 0.490E+00   0.183E-02 0.307E-03 0.831E-02
   -.453E+02 0.450E+01 0.379E+03   0.446E+02 -.391E+01 -.377E+03   0.708E+00 -.996E+00 -.223E+01   0.981E-02 -.136E-02 0.412E-02
   -.381E+03 0.448E+01 0.776E+03   0.381E+03 -.375E+01 -.778E+03   0.297E+00 -.315E+00 0.920E+00   -.184E-01 0.133E-01 0.624E-01
   -.116E+03 0.169E+03 -.122E+04   0.114E+03 -.168E+03 0.122E+04   0.183E+01 -.977E+00 0.243E+01   0.490E-02 -.371E-02 0.915E-02
   0.971E+02 -.817E+01 0.186E+04   -.967E+02 0.711E+01 -.186E+04   -.570E+00 0.575E+00 -.433E+01   -.277E-01 0.473E-02 0.229E-01
   0.142E+03 0.101E+02 0.250E+02   -.143E+03 -.991E+01 -.239E+02   0.731E+00 -.166E+00 -.116E+01   -.130E-01 0.489E-03 0.329E-01
   -.570E+02 0.141E+03 0.193E+04   0.578E+02 -.140E+03 -.193E+04   -.505E+00 -.394E+00 -.271E+01   -.404E-01 0.228E-01 0.207E-01
   0.881E+02 0.922E+02 0.463E+02   -.878E+02 -.928E+02 -.459E+02   -.269E+00 0.665E+00 -.508E+00   -.129E-01 -.895E-02 0.403E-01
   -.402E+03 -.202E+02 0.105E+04   0.403E+03 0.189E+02 -.105E+04   -.756E+00 0.172E+01 -.168E+01   -.106E-01 -.135E-01 0.572E-01
   -.212E+03 -.132E+02 -.111E+04   0.213E+03 0.136E+02 0.111E+04   -.111E+01 -.468E+00 0.447E+00   0.888E-03 0.342E-02 0.663E-02
   0.294E+03 -.118E+03 0.177E+04   -.294E+03 0.118E+03 -.177E+04   0.256E+00 -.351E+00 -.426E+01   -.154E-01 -.365E-02 0.216E-01
   0.367E+03 -.135E+03 0.104E+02   -.367E+03 0.135E+03 -.101E+02   0.285E+00 0.155E+00 -.409E+00   -.985E-02 0.145E-01 0.299E-01
   -.188E+02 0.341E+01 0.312E+03   0.182E+02 -.332E+01 -.312E+03   0.596E+00 -.113E+00 -.157E+00   -.892E-02 0.252E-03 0.178E-01
   -.511E+01 -.401E+02 -.482E+03   0.496E+01 0.392E+02 0.481E+03   0.147E+00 0.839E+00 0.679E+00   -.432E-02 -.242E-03 0.245E-02
   0.176E+03 -.719E+01 0.297E+03   -.175E+03 0.709E+01 -.298E+03   -.144E+01 0.600E+00 0.561E+00   0.304E-02 -.172E-02 0.128E-01
   0.188E+03 -.279E+02 -.443E+03   -.187E+03 0.295E+02 0.441E+03   -.121E+01 -.156E+01 0.249E+01   0.121E-02 0.135E-02 0.763E-03
   0.138E+03 -.522E+02 0.333E+02   -.138E+03 0.525E+02 -.335E+02   -.254E+00 -.310E+00 0.159E+00   0.845E-03 0.559E-03 0.827E-02
   0.117E+03 -.556E+02 0.540E+03   -.115E+03 0.556E+02 -.537E+03   -.887E+00 -.242E+00 -.264E+01   0.136E-02 -.112E-02 0.589E-02
   -.120E+03 0.750E+02 0.330E-01   0.119E+03 -.740E+02 -.313E+00   0.384E-01 -.103E+01 0.262E+00   -.168E-02 -.291E-03 0.126E-01
   -.998E+02 0.598E+02 0.592E+03   0.992E+02 -.592E+02 -.589E+03   0.409E+00 -.560E+00 -.287E+01   -.517E-02 -.204E-02 0.339E-02
   0.739E+02 -.192E+02 0.271E+03   -.748E+02 0.186E+02 -.270E+03   0.102E+01 0.953E+00 -.555E+00   -.825E-02 -.190E-02 0.105E-01
   0.310E+02 -.657E+02 -.386E+03   -.314E+02 0.638E+02 0.384E+03   0.430E+00 0.182E+01 0.138E+01   -.405E-02 0.584E-03 0.123E-02
   -.725E+02 0.165E+02 -.336E+03   0.718E+02 -.176E+02 0.334E+03   0.676E+00 0.109E+01 0.209E+01   -.667E-03 -.362E-03 0.137E-02
   -.159E+03 0.539E+01 0.289E+03   0.158E+03 -.529E+01 -.290E+03   0.370E+00 -.226E+00 -.122E+00   0.472E-02 -.972E-03 0.192E-01
   -.149E+03 -.524E+01 0.553E+03   0.148E+03 0.517E+01 -.550E+03   0.742E+00 -.157E-01 -.252E+01   0.537E-02 0.491E-02 0.615E-02
   -.189E+03 -.134E+02 0.133E+02   0.188E+03 0.136E+02 -.146E+02   0.110E+01 -.138E+00 0.128E+01   -.302E-03 -.287E-02 0.122E-01
   0.794E+02 0.665E+01 0.275E+03   -.796E+02 -.630E+01 -.275E+03   0.457E-01 -.556E-01 -.216E+00   -.754E-02 0.184E-02 0.114E-01
   0.472E+02 0.695E+02 -.450E+03   -.452E+02 -.675E+02 0.447E+03   -.202E+01 -.202E+01 0.251E+01   -.348E-02 -.714E-03 0.465E-03
   0.689E+02 0.848E+01 0.296E+01   -.695E+02 -.808E+01 -.444E+01   0.572E+00 -.396E+00 0.147E+01   -.688E-02 -.433E-03 0.849E-02
   0.340E+02 -.117E+01 0.572E+03   -.346E+02 0.114E+01 -.569E+03   0.603E+00 0.121E-02 -.243E+01   -.124E-01 -.143E-02 0.531E-02
   0.129E+03 0.113E+02 0.266E+03   -.128E+03 -.116E+02 -.266E+03   -.875E+00 0.589E+00 -.450E+00   -.472E-02 0.156E-02 0.123E-01
   0.942E+02 0.184E+02 -.395E+03   -.922E+02 -.171E+02 0.393E+03   -.195E+01 -.125E+01 0.153E+01   -.112E-02 -.180E-02 0.127E-02
   0.129E+03 0.877E+01 0.291E+03   -.129E+03 -.862E+01 -.290E+03   0.686E-01 -.324E+00 -.675E+00   0.307E-02 0.227E-02 0.110E-01
   0.831E+02 0.380E+01 -.342E+03   -.847E+02 -.447E+01 0.340E+03   0.155E+01 0.664E+00 0.206E+01   -.971E-03 -.283E-02 0.228E-02
   0.127E+03 0.394E+02 0.503E+03   -.127E+03 -.391E+02 -.500E+03   0.173E+00 -.437E+00 -.268E+01   0.442E-02 0.168E-02 0.761E-02
   0.148E+03 0.352E+02 0.365E+02   -.148E+03 -.343E+02 -.368E+02   -.237E+00 -.855E+00 0.287E+00   0.897E-03 -.860E-03 0.709E-02
   -.981E+02 -.146E+01 0.559E+03   0.983E+02 0.144E+01 -.556E+03   -.437E+00 0.294E-01 -.301E+01   0.539E-02 -.371E-02 0.443E-02
   -.144E+03 0.540E+01 -.883E+01   0.144E+03 -.536E+01 0.916E+01   0.301E+00 -.439E-01 -.351E+00   0.631E-03 0.216E-02 0.122E-01
   0.129E+03 0.291E+02 0.529E+03   -.129E+03 -.294E+02 -.526E+03   -.279E+00 0.378E+00 -.249E+01   -.374E-02 0.320E-03 0.694E-02
   0.145E+03 0.305E+02 0.172E+02   -.144E+03 -.305E+02 -.178E+02   -.770E+00 -.236E-01 0.583E+00   -.248E-02 -.366E-02 0.737E-02
   0.868E+02 -.115E+02 -.353E+03   -.867E+02 0.987E+01 0.351E+03   -.106E+00 0.163E+01 0.238E+01   -.181E-02 -.282E-03 -.248E-02
   0.120E+03 -.572E+01 0.306E+03   -.121E+03 0.542E+01 -.306E+03   0.613E+00 0.342E+00 -.239E+00   -.410E-02 -.100E-02 0.930E-02
   0.393E+02 0.255E+01 0.245E+03   -.391E+02 -.251E+01 -.246E+03   -.307E+00 -.384E-01 0.126E+00   0.895E-02 0.795E-03 0.138E-01
   0.173E+02 -.322E+00 -.324E+03   -.183E+02 0.373E+00 0.322E+03   0.106E+01 -.515E-01 0.160E+01   0.145E-02 -.126E-02 0.201E-02
   -.405E+02 -.241E-01 0.512E+03   0.407E+02 0.367E+00 -.509E+03   -.682E-01 -.249E+00 -.284E+01   0.811E-02 0.161E-02 0.485E-02
   -.675E+02 -.115E+02 0.193E+02   0.675E+02 0.116E+02 -.192E+02   -.313E-01 -.869E-01 -.492E-01   0.433E-02 -.872E-03 0.121E-01
   0.521E+02 -.296E+01 0.494E+03   -.520E+02 0.232E+01 -.491E+03   0.104E-01 0.196E+00 -.315E+01   0.828E-02 0.108E-02 0.616E-02
   0.517E+02 -.209E+01 -.191E+02   -.514E+02 0.152E+01 0.196E+02   -.327E+00 0.568E+00 -.523E+00   0.524E-02 0.231E-02 0.856E-02
   -.683E+02 -.445E+01 0.274E+03   0.683E+02 0.453E+01 -.275E+03   0.595E-01 0.289E+00 0.254E-01   0.828E-02 0.290E-03 0.141E-01
   -.628E+02 -.633E+02 -.349E+03   0.633E+02 0.623E+02 0.347E+03   -.585E+00 0.106E+01 0.210E+01   0.189E-02 -.455E-03 0.129E-02
   0.410E+02 0.107E+01 0.508E+03   -.403E+02 -.938E+00 -.504E+03   -.817E+00 -.319E+00 -.320E+01   0.762E-02 -.156E-02 0.522E-02
   0.362E+02 -.162E+01 0.133E+02   -.358E+02 0.192E+01 -.127E+02   -.456E+00 -.304E+00 -.647E+00   0.528E-02 -.221E-02 0.893E-02
   -.952E+02 0.181E+01 0.253E+03   0.948E+02 -.188E+01 -.254E+03   0.434E+00 0.127E-01 -.158E+00   0.702E-02 -.926E-03 0.138E-01
   -.125E+03 0.243E+02 -.374E+03   0.123E+03 -.248E+02 0.372E+03   0.162E+01 0.462E+00 0.166E+01   0.662E-03 0.691E-03 0.137E-02
   0.219E+02 0.372E+02 -.294E+03   -.213E+02 -.364E+02 0.293E+03   -.582E+00 -.844E+00 0.660E+00   0.224E-02 0.214E-03 -.410E-03
   0.522E+02 -.541E+01 0.281E+03   -.515E+02 0.532E+01 -.282E+03   -.683E+00 0.280E+00 -.840E-01   0.673E-02 -.109E-02 0.981E-02
[...]
   -.140E+03 -.372E+02 -.354E+03   0.139E+03 0.378E+02 0.352E+03   0.670E+00 -.598E+00 0.171E+01   0.968E-03 -.508E-03 0.282E-02
   0.150E+03 0.701E+02 -.586E+03   -.149E+03 -.693E+02 0.590E+03   -.356E+00 -.784E+00 -.470E+01   0.657E-02 0.353E-02 0.149E-02
   -.110E+03 0.231E+02 -.802E+03   0.110E+03 -.270E+02 0.816E+03   -.903E+00 0.389E+01 -.145E+02   0.421E-02 0.208E-02 -.261E-02
   0.190E+03 0.158E+02 -.580E+03   -.192E+03 -.183E+02 0.585E+03   0.147E+01 0.247E+01 -.502E+01   0.501E-02 0.369E-02 -.168E-02
   -.104E+03 0.205E+02 -.713E+03   0.103E+03 -.192E+02 0.723E+03   0.105E+01 -.124E+01 -.102E+02   0.828E-02 0.242E-02 0.138E-02
   0.930E+02 -.226E+02 -.825E+03   -.937E+02 0.251E+02 0.845E+03   0.738E+00 -.244E+01 -.193E+02   0.614E-02 0.756E-02 -.865E-02
   0.921E+02 -.377E+02 -.923E+03   -.878E+02 0.369E+02 0.942E+03   -.434E+01 0.794E+00 -.191E+02   0.119E-02 0.120E-01 0.732E-03
   -.109E+03 -.715E+02 -.103E+04   0.111E+03 0.706E+02 0.105E+04   -.201E+01 0.879E+00 -.213E+02   0.452E-02 0.174E-02 -.503E-02
   0.760E+02 0.425E+02 -.986E+03   -.791E+02 -.440E+02 0.101E+04   0.307E+01 0.149E+01 -.207E+02   -.437E-02 0.303E-02 -.454E-02
   0.141E+02 -.172E+02 -.841E+03   -.129E+02 0.150E+02 0.860E+03   -.121E+01 0.225E+01 -.186E+02   0.118E-01 0.635E-02 -.863E-02
   0.101E+03 -.182E+02 -.950E+03   -.105E+03 0.209E+02 0.969E+03   0.404E+01 -.273E+01 -.181E+02   -.487E-02 0.241E-02 -.108E-02
   0.589E+02 0.517E+01 -.732E+03   -.596E+02 -.806E+01 0.742E+03   0.738E+00 0.289E+01 -.931E+01   -.106E-02 0.200E-02 -.457E-02
   -.147E+03 -.709E+02 -.979E+03   0.147E+03 0.744E+02 0.998E+03   0.798E+00 -.352E+01 -.197E+02   0.853E-02 0.368E-02 -.688E-02
   -.287E+03 -.210E+02 -.628E+03   0.288E+03 0.239E+02 0.635E+03   -.127E+01 -.290E+01 -.715E+01   0.512E-02 -.224E-02 -.167E-02
   -.121E+01 0.120E+01 0.207E+03   0.227E-12 0.853E-13 -.216E-11   0.129E+01 -.127E+01 -.208E+03   -.808E-01 0.646E-01 0.659E+00

 POSITION                                       TOTAL-FORCE (eV/Angst)
      8.57631      8.29685     10.39845        -0.069121     -0.172891      0.008176
      8.57442      3.84079     15.10061        -0.002507      0.002310     -0.001364
      8.74895      6.01948     16.98267        -0.000152     -0.004845      0.000580
      8.51616      0.79995     12.43874        -0.060025     -0.054119      0.039921
     13.42320      6.10208     15.27679        -0.000003     -0.003849     -0.001145
     13.49094      1.15316     10.44749        -0.022098     -0.404101     -0.054734
     10.03344      3.28428     12.67411        -0.043934      0.421834     -0.467214
      9.88623      8.44880     17.23554        -0.000061     -0.000308      0.002089
      7.12524      5.81577     10.15765        -0.138871     -0.476986      0.890086
      6.99140      1.33540     15.06473        -0.000823     -0.001110     -0.001602
      8.51222      3.28036     10.20450         0.277178      0.046853      0.868666
      8.43795      8.29477     14.95444        -0.002274     -0.000878     -0.002119
     10.22263      8.06723     12.77991         0.394438      0.378705     -0.325787
     10.09987      3.77007     17.57569        -0.002082     -0.000839      0.001685
      5.42664      8.10481     10.20639         0.279612      0.087348      0.828698
      5.33374      3.56102     15.07289        -0.001871     -0.002648     -0.001606
      8.52843      5.75423     12.65640         0.046185     -0.029196     -0.306367
      8.47535      1.14146     17.53561        -0.003007     -0.001655      0.000687
      3.84829      7.97317     12.47259        -0.544188      0.495531     -0.481961
      3.80567      3.32869     17.42847        -0.006253      0.003249      0.002299
      3.79436      5.66549     14.75260         0.002881     -0.003479      0.000520
      3.90063      0.73891     10.00000         0.435673     -0.203440      0.353831
     10.31575      6.13655     14.87306        -0.002271     -0.001522     -0.004557
     10.19112      1.10470     10.13736        -0.221789     -0.007901      0.279596
      6.82945      7.99424     12.66670         0.099691      0.261309     -0.393795
      6.84956      3.70322     17.41593        -0.002886      0.001229      0.001339
     11.58793      6.32680     17.50410         0.000951      0.000243      0.002844
     11.66772      1.05372     12.57547        -0.330091     -0.132911     -0.471270
     11.73919      3.33868     10.41199        -0.267388     -0.086268      0.595789
     11.79414      8.42016     15.35387        -0.002734     -0.000519     -0.002132
      7.18522      3.24644     12.75390        -0.155280      0.299508     -0.416169
      7.15062      8.09837     17.52298         0.001383      0.000056      0.001646
      6.81909      6.01665     14.84584        -0.003517     -0.005151     -0.000650
      6.87795      0.97560     10.08695        -0.067528     -0.036384      0.230536
      5.51084      5.55012     12.48419        -0.114336      0.324603     -0.536542
      5.51566      0.93858     17.50510        -0.002078     -0.002249      0.002000
      3.51249      3.50019     12.83519        -0.037015     -0.165633     -0.254061
      3.10622      8.73221     17.55523        -0.002766     -0.003593      0.001105
      3.46798      5.87237     10.40868         0.105034     -0.207108     -0.040231
      3.47675      1.30959     15.12672        -0.000873     -0.002557      0.000206
     11.91771      8.21633     10.24534        -0.225366      0.006256      0.756240
     11.90108      3.59891     15.14948         0.001029      0.001113     -0.001314
      5.24135      3.36543     10.32679         0.118050      0.088458      0.150736
      5.16992      8.38655     15.10780        -0.001564      0.000441      0.000885
      4.95447      6.17688     17.36147        -0.007469     -0.004845     -0.002533
      5.28930      0.99064     12.60849         0.252936      0.032721     -0.377561
      1.60538      5.84491     12.85122        -0.107484      0.006281     -0.475792
      1.30851      1.59429     17.48382        -0.001082     -0.001450      0.002544
     13.72038      5.67134     10.18293         0.148329      0.095339      0.582984
     13.68651      1.06482     14.90607        -0.001269      0.002345     -0.000771
      1.63456      8.33987     10.36453         0.076002     -0.443802      0.115033
      1.56352      3.74545     15.27393        -0.001999     -0.005302      0.003181
     13.76831      3.16119     12.53308         0.107731      0.369339     -0.284078
      0.25731      8.24143     17.68029        -0.004178     -0.000626      0.000745
      1.99440      3.17314     10.17666        -0.132334     -0.185117      0.634062
      1.86640      8.03027     15.08101        -0.001640     -0.000993     -0.001827
     13.48051      8.37930     12.86886         0.055953     -0.055827     -0.438793
     13.17789      4.04846     17.94004        -0.003674     -0.002218      0.001968
      1.86188      5.83070     17.53681         0.000189     -0.005365      0.003328
      2.02729      0.87737     12.46815         0.023190      0.187082     -0.503273
[...]
     11.97051      5.66181     12.67660         0.046321      0.214321     -0.688014
     11.77359      1.19789     17.64922        -0.001874     -0.001971      0.000481
      5.10522      8.38765     17.42728        -0.002257     -0.001840      0.001306
     13.42928      2.12818     18.65658        -0.000616     -0.001420      0.000743
      3.47893      1.20630     17.49335        -0.001971     -0.003785     -0.001808
     13.58582      6.17419     18.24627        -0.004003     -0.001656     -0.000892
      3.61491      5.03532     18.45584         0.000663      0.003242      0.002366
      5.47907      2.73086     18.42808        -0.004765     -0.004439     -0.004745
     10.06805      0.44730     18.63655        -0.002309     -0.003085     -0.000364
      7.01292      0.23478     18.55814        -0.001002     -0.003022      0.000349
      2.07984      7.65939     18.70732        -0.003622     -0.002948      0.002290
      8.47023      2.99849     18.42448         0.000018     -0.001924     -0.000955
      7.01595      5.92791     17.71778        -0.000285      0.000249      0.000571
     11.33523      4.77662     18.71982        -0.003952     -0.000221      0.002883
     11.94432      8.38953     17.59944        -0.001804     -0.000043      0.005935
    total drift:                               -0.001475     -0.001746     -0.042507

  FREE ENERGIE OF THE ION-ELECTRON SYSTEM (eV)
  free  energy   TOTEN  =      -637.23120449 eV

  energy  without entropy=     -637.21993889  energy(sigma->0) =     -637.22838809

 d Force = 0.9073139E-05[ 0.123E-04, 0.588E-05]  d Energy = 0.1106718E-04-0.199E-05
 d Force = 0.1765986E+00[ 0.177E+00, 0.177E+00]  d Ewald  = 0.1765986E+00 0.553E-09

 reached required accuracy - stopping structural energy minimisation