 vasp.5.4.1 05Feb16 (build Mar 19 2020 08:54:17) complex

 executed on           IFC91_ompi date 2021.10.24  15:53:45

 INCAR:
 POTCAR:    PAW_PBE Al 04Jan2001
 POTCAR:    PAW_PBE Nb_sv 25May2007
 POTCAR:    PAW_PBE Ta 17Jan2003
 POTCAR:    PAW_PBE Ti 08Apr2002
 POTCAR:   PAW_PBE Zr 08Apr2002
 POTCAR:    PAW_PBE O 08Apr2002

 POTCAR:    PAW_PBE Al 04Jan2001
   VRHFIN =Al: s2p1

   TITEL  = PAW_PBE Al 04Jan2001
   POMASS =   26.981; ZVAL   =    3.000    mass and valenz
   ENMAX  =  240.300; ENMIN  =  180.225 eV

 POTCAR:    PAW_PBE Nb_sv 25May2007
   VRHFIN =Nb: 4p5s4d

   TITEL  = PAW_PBE Nb_sv 25May2007
   POMASS =   92.910; ZVAL   =   13.000    mass and valenz
   ENMAX  =  293.235; ENMIN  =  219.927 eV

 POTCAR:    PAW_PBE Ta 17Jan2003
   VRHFIN =Ta:  6s5d

   TITEL  = PAW_PBE Ta 17Jan2003
   POMASS =  180.948; ZVAL   =    5.000    mass and valenz
   ENMAX  =  223.667; ENMIN  =  167.750 eV

 POTCAR:    PAW_PBE Ti 08Apr2002
   VRHFIN =Ti: d3 s1

   TITEL  = PAW_PBE Ti 08Apr2002
   POMASS =   47.880; ZVAL   =    4.000    mass and valenz
   ENMAX  =  178.330; ENMIN  =  133.747 eV

 POTCAR:   PAW_PBE Zr 08Apr2002
   VRHFIN =Zr: 5s4d5p

   TITEL  = PAW_PBE Zr 08Apr2002
   POMASS =   91.224; ZVAL   =    4.000    mass and valenz
   ENMAX  =  154.632; ENMIN  =  115.974 eV
   QCUT   =   -3.371; QGAM   =    6.742    optimization parameters

   Description
     l     E      TYP  RCUT    TYP  RCUT
     2   .000     23  3.000
     2   .000     23  3.000
     0   .000     23  3.000
     0  2.000     23  3.000
     1  -.400     23  3.000
     3   .000      7   .000

 POTCAR:    PAW_PBE O 08Apr2002
   VRHFIN =O: s2p4

   TITEL  = PAW_PBE O 08Apr2002
   POMASS =   16.000; ZVAL   =    6.000    mass and valenz
   ENMAX  =  400.000; ENMIN  =  300.000 eV

 WARNING: PSMAXN for non-local potential too small
          PSMAXN should be >   12.5490833729506       NTYP=           5
  PAW_PBE Al 04Jan2001                  :
  PAW_PBE Nb_sv 25May2007               :
  PAW_PBE Ta 17Jan2003                  :
  PAW_PBE Ti 08Apr2002                  :
 PAW_PBE Zr 08Apr2002                   :
  PAW_PBE O 08Apr2002                   :

 POSCAR: Al Nb Ta Ti Zr
  positions in direct lattice
  velocities in cartesian coordinates
 exchange correlation table for  LEXCH =        8
   RHO(1)=    0.500       N(1)  =     2000
   RHO(2)=  100.500       N(2)  =     4000

 ion  position               nearest neighbor table
   1  0.623  0.867  0.376-  34 2.83  25 2.88  24 2.88   9 2.88  13 2.90   4 2.91  61 2.93  15 3.16
                            41 3.35  17 3.40
   2  0.622  0.390  0.546-  31 2.76  14 2.76  23 2.77  26 2.77  33 2.81   7 2.86  10 2.88  62 2.97
                            18 3.05  16 3.15  17 3.17  42 3.34   3 3.34
   3  0.616  0.644  0.628-  32 2.74  14 2.84  23 2.90  33 2.91   8 2.91  27 2.96  26 2.97  45 3.16
                             2 3.34
   4  0.618  0.084  0.450-  31 2.80  24 2.86  34 2.87  13 2.88   1 2.91  10 2.91  25 2.92   7 2.92
                            62 2.99  12 3.13  28 3.16  46 3.24
   5  0.978  0.641  0.555-  30 2.76  27 2.81  42 2.93  56 2.96  54 2.97  52 3.00  59 3.03  58 3.07
                            63 3.10  47 3.15  57 3.34
   6  0.980  0.121  0.378-  29 2.80  28 2.80  53 2.91  41 2.96  51 3.05  55 3.05  60 3.08  57 3.37

   7  0.729  0.343  0.458-  28 2.77  29 2.83  31 2.85   2 2.86  17 2.89  11 2.90   4 2.92  62 3.02
                            63 3.07  42 3.07
   8  0.726  0.904  0.620-  30 2.62  32 2.72  12 2.73  27 2.74  18 2.80   3 2.91  64 3.09  62 3.13

   9  0.517  0.608  0.367-  35 2.84  15 2.85  17 2.87   1 2.88  11 2.89  61 2.95  43 3.10
  10  0.515  0.132  0.540-  18 2.78  36 2.78  16 2.81  12 2.86   2 2.88   4 2.91  31 2.95  46 2.96
                            62 3.08  44 3.14
  11  0.618  0.343  0.369-  24 2.75  34 2.83  31 2.87   9 2.89   7 2.90  61 2.96  43 3.27
  12  0.621  0.875  0.537-  13 2.68  32 2.70   8 2.73  23 2.79  25 2.80  10 2.86  33 2.92  62 2.92
                             4 3.13  44 3.39
  13  0.742  0.843  0.462-  12 2.68  17 2.87  30 2.87   4 2.88   1 2.90  28 2.94  63 2.98  23 2.98
                            41 3.05  57 3.27  62 3.45
  14  0.741  0.408  0.626-  27 2.72   2 2.76  42 2.81  18 2.82   3 2.84  64 2.98  58 3.12
  15  0.394  0.847  0.369-  22 2.68  19 2.76  25 2.83  34 2.84   9 2.85  39 2.98   1 3.16  46 3.43

  16  0.394  0.368  0.542-  21 2.64  20 2.65  26 2.72  10 2.81  33 2.85  31 2.87  37 2.89  40 3.02
                             2 3.15
  17  0.619  0.602  0.458-  23 2.80  25 2.81  33 2.84  31 2.85   9 2.87  13 2.87   7 2.89  61 2.95
                            35 3.03   2 3.17   1 3.40  63 3.44
  18  0.629  0.161  0.622-  26 2.77  10 2.78  62 2.80   8 2.80  14 2.82  32 2.85   2 3.05  36 3.18
                            64 3.27
  19  0.279  0.834  0.451-  15 2.76  35 2.94  46 2.96  39 2.97  25 2.99  44 3.00  60 3.07  51 3.08
                            47 3.12  56 3.20
  20  0.283  0.372  0.621-  67 2.26  16 2.65  36 2.90  26 2.99  21 3.02  52 3.03  40 3.05  45 3.07
                            59 3.07  48 3.15
  21  0.281  0.591  0.542-  16 2.64  59 2.87  45 2.93  52 2.99  35 3.00  44 3.00  20 3.02  33 3.03
                            37 3.06  47 3.12  56 3.16
  22  0.283  0.077  0.361-  15 2.68  46 2.97  43 2.97  34 2.99  51 3.02  55 3.10  60 3.10
  23  0.732  0.632  0.541-  27 2.69   2 2.77  30 2.77  12 2.79  17 2.80   3 2.90  13 2.98  42 2.99
                            63 2.99
  24  0.740  0.115  0.366-  29 2.73  11 2.75  28 2.85   4 2.86   1 2.88  41 3.00
  25  0.496  0.836  0.458-  35 2.78  12 2.80  17 2.81  15 2.83   1 2.88   4 2.92  19 2.99  46 2.99
                            44 2.99  33 3.06
  26  0.500  0.383  0.625-  16 2.72  18 2.77   2 2.77  36 2.87   3 2.97  20 2.99  45 3.03
  27  0.830  0.661  0.625-  23 2.69  14 2.72   8 2.74  58 2.78   5 2.81  30 2.85   3 2.96  54 3.11
                            42 3.47
  28  0.847  0.110  0.455-  62 2.76   7 2.77   6 2.80  24 2.85  57 2.90  13 2.94  53 2.98  29 3.15
                             4 3.16  50 3.22  41 3.36
  29  0.852  0.349  0.376-  24 2.73   6 2.80   7 2.83  53 2.94  61 2.98  49 3.07  28 3.15  63 3.25

  30  0.851  0.864  0.550-   8 2.62   5 2.76  23 2.77  27 2.85  13 2.87  54 2.90  57 2.94  62 2.99
                            50 3.08
  31  0.522  0.339  0.461-   2 2.76   4 2.80  17 2.85   7 2.85  35 2.86  16 2.87  11 2.87  46 2.95
                            10 2.95  43 3.11
  32  0.528  0.901  0.622-  65 2.00  12 2.70   8 2.72   3 2.74  36 2.76  18 2.85  44 2.98  45 3.07

  33  0.500  0.625  0.541-   2 2.81  17 2.84  16 2.85  35 2.86   3 2.91  12 2.92  44 2.93  45 2.96
                            21 3.03  25 3.06
  34  0.499  0.102  0.365-  11 2.83   1 2.83  15 2.84   4 2.87  43 2.91  46 2.98  22 2.99
  35  0.400  0.580  0.451-  25 2.78   9 2.84  31 2.86  33 2.86  37 2.88  39 2.93  19 2.94  21 3.00
                            17 3.03  43 3.08
  36  0.399  0.121  0.622-  67 2.04  65 2.17  32 2.76  10 2.78  26 2.87  38 2.89  20 2.90  40 2.93
                            44 3.17  18 3.18
  37  0.255  0.366  0.464-  35 2.88  16 2.89  47 3.02  60 3.04  43 3.05  21 3.06  55 3.08  46 3.08
                            52 3.13  40 3.22  39 3.39
  38  0.240  0.924  0.628-  65 2.03  67 2.13  56 2.88  36 2.89  44 2.96  40 2.98  59 3.05  48 3.14
                            45 3.28  54 3.34
  39  0.252  0.614  0.376-  35 2.93  19 2.97  15 2.98  47 3.07  43 3.07  51 3.07  55 3.08  37 3.39
                            49 3.53
  40  0.246  0.136  0.549-  67 2.44  36 2.93  38 2.98  16 3.02  20 3.05  60 3.07  44 3.08  52 3.08
                            56 3.15  46 3.22  37 3.22  48 3.22  50 3.48
  41  0.865  0.859  0.370-   6 2.96  24 3.00  61 3.05  13 3.05  57 3.06  49 3.12   1 3.35  28 3.36
                            51 3.49  63 3.53
  42  0.864  0.384  0.545-  14 2.81   5 2.93  23 2.99  62 3.00   7 3.07  58 3.10  63 3.12  50 3.16
                            53 3.20  64 3.33   2 3.34  52 3.43  27 3.47
  43  0.381  0.352  0.373-  34 2.91  22 2.97  37 3.05  39 3.07  35 3.08   9 3.10  31 3.11  55 3.26
                            11 3.27  46 3.29
  44  0.375  0.873  0.547-  65 2.44  33 2.93  38 2.96  32 2.98  25 2.99  19 3.00  21 3.00  40 3.08
                            45 3.13  10 3.14  36 3.17  56 3.30  46 3.35  12 3.39
  45  0.386  0.655  0.631-  65 2.32  21 2.93  33 2.96  26 3.03  20 3.07  32 3.07  44 3.13   3 3.16
                            59 3.25  38 3.28
  46  0.384  0.104  0.456-  31 2.95  10 2.96  19 2.96  22 2.97  34 2.98  25 2.99  37 3.08  40 3.22
                             4 3.24  60 3.27  43 3.29  44 3.35  15 3.43
  47  0.117  0.611  0.465-  37 3.02  39 3.07  19 3.12  21 3.12  56 3.12  53 3.14  49 3.15   5 3.15
                            57 3.17  52 3.18  63 3.42  51 3.52  55 3.80
  48  0.100  0.182  0.639-  66 2.08  67 2.17  50 3.05  38 3.14  20 3.15  52 3.16  58 3.18  40 3.22
                            64 3.26  54 3.26
  49  0.996  0.593  0.368-  63 3.05  29 3.07  41 3.12  47 3.15  51 3.16  55 3.23  53 3.44  39 3.53
                            61 3.65  57 3.82
  50  0.994  0.112  0.545-  48 3.05  30 3.08  64 3.10  54 3.15  57 3.16  42 3.16  52 3.16  56 3.20
                            28 3.22  53 3.29  60 3.36  40 3.48  62 3.53
  51  0.119  0.872  0.375-  60 3.00  22 3.02   6 3.05  39 3.07  19 3.08  57 3.16  49 3.16  41 3.49
                            47 3.52
  52  0.113  0.395  0.552-  21 2.99   5 3.00  20 3.03  59 3.04  40 3.08  37 3.13  48 3.16  50 3.16
                            47 3.18  53 3.20  58 3.31  42 3.43
  53  1.000  0.331  0.453-   6 2.91  29 2.94  28 2.98  60 3.06  63 3.08  55 3.09  47 3.14  52 3.20
                            42 3.20  50 3.29  49 3.44
  54  1.000  0.876  0.625-  30 2.90   5 2.97  56 2.98  27 3.11  59 3.13  50 3.15  64 3.26  48 3.26
                            38 3.34
  55  0.145  0.332  0.368-   6 3.05  37 3.08  39 3.08  53 3.09  22 3.10  49 3.23  60 3.24  43 3.26
                            47 3.80
  56  0.136  0.848  0.542-  38 2.88   5 2.96  54 2.98  59 3.04  57 3.04  47 3.12  40 3.15  21 3.16
                            50 3.20  19 3.20  44 3.30  60 3.43
  57  0.979  0.876  0.465-  28 2.90  30 2.94  56 3.04  41 3.06  63 3.11  60 3.13  51 3.16  50 3.16
                            47 3.17  13 3.27   5 3.34   6 3.37  49 3.82
  58  0.963  0.449  0.643-  66 2.08  27 2.78   5 3.07  42 3.10  14 3.12  64 3.14  48 3.18  59 3.20
                            52 3.31
  59  0.152  0.633  0.622-  21 2.87   5 3.03  56 3.04  52 3.04  38 3.05  20 3.07  54 3.13  58 3.20
                            45 3.25
  60  0.147  0.092  0.451-  51 3.00  37 3.04  53 3.06  19 3.07  40 3.07   6 3.08  22 3.10  57 3.13
                            55 3.24  46 3.27  50 3.36  56 3.43
  61  0.731  0.606  0.367-   1 2.93  17 2.95   9 2.95  11 2.96  29 2.98  41 3.05  63 3.17  49 3.65

  62  0.739  0.130  0.538-  28 2.76  18 2.80  12 2.92   2 2.97   4 2.99  30 2.99  42 3.00   7 3.02
                            10 3.08   8 3.13  64 3.21  13 3.45  50 3.53
  63  0.869  0.592  0.458-  13 2.98  23 2.99  49 3.05   7 3.07  53 3.08   5 3.10  57 3.11  42 3.12
                            61 3.17  29 3.25  47 3.42  17 3.44  41 3.53
[...]
  E(xc)   -1533.19096 -1533.88613 -1523.12837     0.13467    -0.93765     0.37478
  Local  ************************171974.35662  1531.15212   122.26925  -638.84901
  n-local   -80.46242   -86.69665  -120.11455     9.52216    -1.30536     2.33549
  augment   454.59167   455.66926   451.28564    -1.37106     0.37139    -0.04559
  Kinetic  4456.83484  4445.93765  4475.24709    -8.54653     6.26351    -1.19552
  Fock        0.00000     0.00000     0.00000     0.00000     0.00000     0.00000
  Total     -31.66772   -30.75125   -15.74552    -4.16053     5.48689    -1.05309
  in kB     -13.92505   -13.52206    -6.92368    -1.82948     2.41272    -0.46307

 VOLUME and BASIS-vectors are now :
  energy-cutoff  :      600.00
  volume of cell :     3643.60
      direct lattice vectors                 reciprocal lattice vectors
    13.771350861  0.000000000  0.000000000     0.072614518  0.000000000  0.000000000
     0.000000000  9.564481735  0.000000000     0.000000000  0.104553496  0.000000000
     0.000000000  0.000000000 27.662570434     0.000000000  0.000000000  0.036149931

  length of vectors
    13.771350861  9.564481735 27.662570434     0.072614518  0.104553496  0.036149931

 FORCES acting on ions
    electron-ion (+dipol)            ewald-force                    non-local-force                 convergence-correction
   -.471E+02 -.335E+02 0.386E+03   0.468E+02 0.332E+02 -.385E+03   0.127E+00 0.111E+00 -.798E+00   0.126E-01 0.208E-02 0.693E-02
   -.171E+02 -.368E+02 -.125E+03   0.172E+02 0.368E+02 0.125E+03   -.506E-01 0.562E-01 -.835E-01   0.863E-02 0.113E-02 0.123E-01
   0.333E+02 0.227E+02 -.381E+03   -.329E+02 -.223E+02 0.380E+03   -.355E+00 -.471E+00 0.107E+01   0.570E-02 -.558E-03 0.258E-02
   0.762E+00 0.496E+01 0.204E+03   -.909E+00 -.482E+01 -.203E+03   0.121E+00 -.266E+00 -.815E+00   0.136E-01 0.612E-03 0.109E-01
   -.619E+02 0.460E+01 -.110E+03   0.616E+02 -.410E+01 0.112E+03   0.325E+00 -.504E+00 -.172E+01   -.804E-02 -.539E-03 0.127E-01
   -.461E+02 0.465E+01 0.329E+03   0.454E+02 -.409E+01 -.326E+03   0.650E+00 -.990E+00 -.226E+01   -.151E-01 0.694E-03 0.682E-02
   -.379E+03 -.113E+02 0.482E+03   0.379E+03 0.121E+02 -.483E+03   0.163E+00 -.376E+00 0.843E+00   0.220E-01 -.112E-01 0.484E-01
   -.295E+03 0.263E+02 -.164E+04   0.293E+03 -.252E+02 0.163E+04   0.153E+01 -.108E+01 0.374E+01   0.305E-02 0.169E-03 0.164E-01
   0.101E+03 -.886E+01 0.165E+04   -.101E+03 0.776E+01 -.165E+04   -.528E+00 0.630E+00 -.432E+01   0.472E-01 -.112E-02 0.225E-01
   0.165E+03 -.131E+02 -.363E+03   -.165E+03 0.132E+02 0.365E+03   0.166E+00 -.604E-01 -.137E+01   0.361E-01 -.268E-02 0.709E-01
   -.549E+02 0.136E+03 0.172E+04   0.556E+02 -.136E+03 -.172E+04   -.495E+00 -.407E+00 -.280E+01   0.607E-01 -.116E-01 0.281E-01
   0.811E+02 0.138E+03 -.369E+03   -.802E+02 -.138E+03 0.369E+03   -.875E+00 0.953E-01 -.288E+00   0.295E-01 -.237E-02 0.597E-01
   -.422E+03 0.892E+01 0.754E+03   0.423E+03 -.100E+02 -.753E+03   -.784E+00 0.135E+01 -.155E+01   0.134E-01 0.839E-02 0.508E-01
   -.127E+03 -.439E+02 -.148E+04   0.128E+03 0.436E+02 0.148E+04   -.113E+01 0.313E+00 0.305E+01   0.963E-02 0.258E-02 0.111E-01
   0.297E+03 -.113E+03 0.156E+04   -.297E+03 0.114E+03 -.155E+04   0.253E+00 -.374E+00 -.415E+01   0.337E-01 -.221E-01 0.236E-01
   0.336E+03 -.153E+03 -.391E+03   -.336E+03 0.153E+03 0.392E+03   0.101E+00 0.158E+00 -.680E+00   0.256E-01 0.561E-02 0.780E-01
   -.125E+02 0.206E+01 0.189E+03   0.120E+02 -.201E+01 -.189E+03   0.540E+00 -.274E+00 0.344E-01   0.164E-01 -.916E-03 0.240E-01
   -.845E+01 -.398E+02 -.650E+03   0.813E+01 0.394E+02 0.647E+03   0.311E+00 0.418E+00 0.252E+01   0.771E-02 0.129E-03 0.806E-02
   0.173E+03 -.142E+01 0.178E+03   -.172E+03 0.129E+01 -.179E+03   -.136E+01 0.518E+00 0.588E+00   -.966E-03 -.268E-02 0.283E-01
   0.115E+03 -.907E+02 -.572E+03   -.113E+03 0.923E+02 0.569E+03   -.152E+01 -.164E+01 0.346E+01   0.152E-02 0.190E-02 0.143E-01
   0.127E+03 -.576E+02 -.119E+03   -.127E+03 0.573E+02 0.119E+03   -.196E+00 0.284E+00 -.152E-01   -.448E-03 0.172E-02 0.225E-01
   0.117E+03 -.553E+02 0.477E+03   -.116E+03 0.553E+02 -.474E+03   -.845E+00 -.190E+00 -.267E+01   -.326E-02 -.112E-02 0.228E-02
   -.976E+02 0.614E+02 -.142E+03   0.975E+02 -.611E+02 0.141E+03   0.954E-01 -.257E+00 0.581E+00   0.505E-02 -.227E-02 0.172E-01
   -.100E+03 0.597E+02 0.530E+03   0.998E+02 -.592E+02 -.527E+03   0.482E+00 -.489E+00 -.277E+01   0.833E-02 0.168E-02 0.104E-01
   0.802E+02 -.920E+01 0.170E+03   -.813E+02 0.873E+01 -.170E+03   0.883E+00 0.733E+00 -.467E+00   0.143E-01 -.876E-03 0.204E-01
   0.210E+02 -.505E+02 -.532E+03   -.221E+02 0.501E+02 0.530E+03   0.104E+01 0.339E+00 0.229E+01   0.670E-02 -.995E-03 0.106E-01
   -.125E+03 -.240E+01 -.449E+03   0.124E+03 0.233E+01 0.447E+03   0.190E+00 0.753E-01 0.211E+01   -.333E-02 -.161E-02 0.377E-02
   -.164E+03 0.682E+01 0.199E+03   0.164E+03 -.661E+01 -.200E+03   0.265E+00 -.406E+00 0.386E+00   -.723E-02 0.137E-02 0.109E-01
   -.150E+03 -.607E+01 0.486E+03   0.149E+03 0.601E+01 -.483E+03   0.666E+00 -.467E-01 -.255E+01   -.799E-02 -.666E-02 0.989E-02
   -.199E+03 0.361E+01 -.146E+03   0.198E+03 -.358E+01 0.146E+03   0.658E+00 -.317E-01 0.356E+00   -.428E-02 -.194E-02 0.139E-01
   0.809E+02 -.173E+01 0.182E+03   -.811E+02 0.213E+01 -.183E+03   0.935E-02 -.470E-01 -.425E-01   0.173E-01 0.101E-02 0.184E-01
   0.387E+02 0.432E+02 -.521E+03   -.380E+02 -.428E+02 0.519E+03   -.715E+00 -.344E+00 0.199E+01   0.848E-02 0.303E-02 0.696E-02
   0.617E+02 0.958E+00 -.159E+03   -.622E+02 -.798E+00 0.159E+03   0.472E+00 -.161E+00 0.578E+00   0.127E-01 0.831E-05 0.223E-01
   0.354E+02 -.103E+01 0.510E+03   -.361E+02 0.947E+00 -.507E+03   0.590E+00 0.245E-01 -.247E+01   0.226E-01 0.985E-03 0.597E-02
   0.131E+03 0.766E+01 0.165E+03   -.130E+03 -.788E+01 -.165E+03   -.636E+00 0.643E+00 -.316E+00   0.103E-01 0.195E-02 0.203E-01
   0.240E+02 -.232E+02 -.484E+03   -.225E+02 0.247E+02 0.481E+03   -.153E+01 -.149E+01 0.243E+01   0.598E-02 -.103E-02 0.100E-01
   0.127E+03 0.322E+01 0.190E+03   -.127E+03 -.304E+01 -.190E+03   -.475E-02 -.220E+00 -.523E+00   -.370E-02 0.138E-02 0.220E-01
   0.131E+03 0.740E+02 -.417E+03   -.132E+03 -.751E+02 0.415E+03   0.120E+01 0.115E+01 0.212E+01   -.931E-03 -.191E-02 0.903E-02
   0.126E+03 0.393E+02 0.433E+03   -.126E+03 -.390E+02 -.430E+03   0.127E+00 -.504E+00 -.281E+01   -.380E-02 0.559E-03 0.468E-02
   0.133E+03 0.310E+02 -.831E+02   -.132E+03 -.307E+02 0.827E+02   -.266E+00 -.354E+00 0.368E+00   -.252E-02 -.172E-02 0.222E-01
   -.990E+02 -.665E+00 0.494E+03   0.993E+02 0.635E+00 -.490E+03   -.473E+00 0.572E-01 -.310E+01   -.827E-02 0.545E-02 0.901E-02
   -.149E+03 -.322E+01 -.113E+03   0.148E+03 0.314E+01 0.113E+03   0.375E+00 0.737E-01 -.531E+00   -.660E-02 -.521E-03 0.147E-01
   0.130E+03 0.277E+02 0.462E+03   -.130E+03 -.280E+02 -.459E+03   -.203E+00 0.319E+00 -.248E+01   0.979E-02 0.506E-02 0.520E-02
   0.136E+03 0.435E+02 -.114E+03   -.136E+03 -.433E+02 0.113E+03   -.633E+00 -.229E+00 0.854E+00   0.551E-02 -.792E-03 0.217E-01
   0.597E+02 0.352E+02 -.482E+03   -.604E+02 -.362E+02 0.478E+03   0.745E+00 0.947E+00 0.365E+01   0.423E-02 0.548E-03 0.745E-02
   0.127E+03 -.411E+01 0.212E+03   -.127E+03 0.381E+01 -.213E+03   0.288E+00 0.115E+00 -.734E-01   0.974E-02 -.143E-02 0.241E-01
   0.345E+02 0.163E+01 0.146E+03   -.343E+02 -.166E+01 -.146E+03   -.676E-01 -.138E+00 0.447E+00   -.122E-01 0.751E-03 0.195E-01
   0.126E+02 0.157E+02 -.401E+03   -.139E+02 -.153E+02 0.399E+03   0.127E+01 -.318E+00 0.230E+01   -.596E-02 -.686E-03 0.465E-02
   -.413E+02 -.292E+00 0.447E+03   0.416E+02 0.677E+00 -.444E+03   -.482E-01 -.227E+00 -.283E+01   -.138E-01 -.111E-02 0.629E-02
   -.609E+02 -.742E+00 -.105E+03   0.608E+02 0.400E+00 0.105E+03   0.379E-01 0.340E+00 -.183E+00   -.115E-01 0.752E-03 0.152E-01
   0.513E+02 -.227E+01 0.427E+03   -.513E+02 0.161E+01 -.424E+03   0.170E-01 0.200E+00 -.308E+01   -.155E-01 -.190E-02 0.640E-02
   0.443E+02 -.139E+02 -.126E+03   -.439E+02 0.137E+02 0.127E+03   -.358E+00 0.196E+00 -.599E+00   -.968E-02 0.638E-04 0.193E-01
   -.704E+02 -.457E+01 0.184E+03   0.704E+02 0.486E+01 -.184E+03   0.106E+00 0.110E+00 0.484E-01   -.170E-01 -.206E-02 0.162E-01
   -.524E+02 0.186E+02 -.405E+03   0.528E+02 -.185E+02 0.402E+03   -.411E+00 -.120E+00 0.279E+01   -.720E-02 -.478E-03 0.643E-02
   0.404E+02 0.451E+00 0.443E+03   -.396E+02 -.308E+00 -.439E+03   -.830E+00 -.296E+00 -.320E+01   -.157E-01 0.253E-02 0.373E-02
   0.378E+02 0.866E+01 -.102E+03   -.372E+02 -.858E+01 0.102E+03   -.557E+00 -.786E-01 -.523E+00   -.747E-02 -.213E-03 0.201E-01
   -.958E+02 0.308E+01 0.154E+03   0.954E+02 -.328E+01 -.155E+03   0.473E+00 0.232E+00 0.239E+00   -.142E-01 0.243E-02 0.162E-01
   -.768E+02 -.763E+02 -.426E+03   0.761E+02 0.741E+02 0.424E+03   0.714E+00 0.223E+01 0.248E+01   -.798E-02 0.111E-02 0.177E-02
   0.363E+02 -.828E+01 -.401E+03   -.355E+02 0.867E+01 0.398E+03   -.775E+00 -.393E+00 0.233E+01   -.393E-02 0.410E-03 0.936E-02
   0.516E+02 -.534E+01 0.191E+03   -.509E+02 0.523E+01 -.191E+03   -.717E+00 0.487E+00 -.170E+00   -.152E-01 -.877E-03 0.213E-01
   -.141E+03 -.429E+02 0.525E+03   0.140E+03 0.422E+02 -.521E+03   0.831E+00 0.398E-01 -.325E+01   0.586E-02 -.124E-02 0.894E-02
   -.145E+03 -.428E+02 -.117E+03   0.145E+03 0.423E+02 0.118E+03   0.352E+00 0.476E+00 -.831E+00   0.403E-02 0.657E-03 0.137E-01
   -.158E+03 0.393E+01 0.180E+03   0.157E+03 -.390E+01 -.181E+03   0.694E+00 0.400E+00 0.390E+00   -.790E-02 -.144E-02 0.162E-01
   -.627E+02 0.376E+02 -.427E+03   0.632E+02 -.364E+02 0.425E+03   -.567E+00 -.116E+01 0.223E+01   -.514E-02 0.110E-02 0.189E-02
   0.960E+02 0.822E+02 -.752E+03   -.962E+02 -.834E+02 0.760E+03   0.198E+00 0.118E+01 -.797E+01   0.653E-02 -.673E-03 0.146E-01
   -.557E+02 0.711E+01 -.798E+03   0.547E+02 -.896E+01 0.813E+03   0.102E+01 0.184E+01 -.147E+02   -.195E-01 0.271E-02 -.816E-02
   0.119E+03 -.838E+01 -.719E+03   -.119E+03 0.803E+01 0.727E+03   0.392E+00 0.353E+00 -.837E+01   -.556E-02 -.237E-02 0.632E-02
   -.178E+01 -.252E+01 0.400E+02   0.185E-12 -.178E-13 0.216E-11   0.155E+01 0.254E+01 -.411E+02   0.233E+00 -.311E-01 0.110E+01

 POSITION                                       TOTAL-FORCE (eV/Angst)
      8.57631      8.29685     10.39845        -0.083996     -0.147551      0.007496
      8.56487      3.72984     15.09271        -0.003780     -0.004348      0.004488
      8.48262      6.16414     17.38232        -0.001550      0.003024      0.005736
      8.51616      0.79995     12.43874        -0.012731     -0.129294     -0.239632
     13.47075      6.13492     15.34609         0.000811     -0.003012      0.000869
     13.49094      1.15316     10.44749        -0.038866     -0.430598     -0.074717
     10.03344      3.28428     12.67411        -0.013692      0.429377     -0.641575
      9.99397      8.64543     17.15256         0.008057      0.001344      0.002231
      7.12524      5.81577     10.15765        -0.182771     -0.468257      0.886741
      7.09124      1.26328     14.93746        -0.001580     -0.003684      0.003322
      8.51222      3.28036     10.20450         0.258149      0.075787      0.727032
      8.54823      8.37154     14.84920         0.006675     -0.003460     -0.002533
     10.22263      8.06723     12.77991         0.227338      0.278846     -0.624880
     10.19996      3.90314     17.31229         0.000708     -0.000100     -0.000537
      5.42664      8.10481     10.20639         0.288698      0.072432      0.926838
      5.42283      3.52115     15.00534         0.000387      0.000320      0.004054
      8.52843      5.75423     12.65640         0.065083     -0.227785     -0.045615
      8.65940      1.54474     17.21808         0.000832      0.001793      0.000852
      3.84829      7.97317     12.47259        -0.356777      0.382270     -0.444878
      3.89357      3.56265     17.16703         0.000634     -0.001113      0.002166
      3.86381      5.65212     14.98795        -0.000327     -0.000065     -0.002335
      3.90063      0.73891     10.00000         0.508942     -0.141556      0.341187
     10.08433      6.04404     14.96705         0.001549     -0.005042      0.002417
     10.19112      1.10470     10.13736        -0.204971      0.046373      0.346322
      6.82945      7.99424     12.66670        -0.186173      0.255219     -0.331889
      6.88115      3.66378     17.29717        -0.003168     -0.001215      0.006695
     11.43245      6.32240     17.27802         0.001051      0.001397      0.002644
     11.66772      1.05372     12.57547        -0.091828     -0.197144     -0.723504
     11.73919      3.33868     10.41199        -0.290946     -0.111192      0.597936
     11.72384      8.26464     15.21868         0.002190     -0.003383     -0.000682
      7.18522      3.24644     12.75390        -0.161816      0.353220     -0.590072
      7.27780      8.61368     17.21859        -0.000197      0.004447     -0.001478
      6.88055      5.97408     14.96203         0.004075     -0.000331      0.005609
      6.87795      0.97560     10.08695        -0.089302     -0.059288      0.151636
      5.51084      5.55012     12.48419         0.043823      0.420717     -0.157709
      5.49896      1.15417     17.21720         0.000793      0.000699     -0.000646
      3.51249      3.50019     12.83519        -0.110330     -0.032375     -0.468423
      3.30387      8.84183     17.37888        -0.000030     -0.001303     -0.001008
      3.46798      5.87237     10.40868         0.037282     -0.266652     -0.091116
      3.38902      1.30114     15.18735         0.000002     -0.000397     -0.000966
     11.91771      8.21633     10.24534        -0.158539      0.033377      0.641401
     11.90191      3.67698     15.08267         0.002003     -0.003043     -0.000816
      5.24135      3.36543     10.32679         0.172971      0.082755      0.176811
      5.16962      8.35190     15.13365         0.000588      0.000285     -0.001137
      5.32172      6.26199     17.45495         0.002465      0.001878     -0.000615
      5.28930      0.99064     12.60849         0.029745     -0.192406     -0.287596
      1.60538      5.84491     12.85122         0.146445     -0.168477     -0.319902
      1.37755      1.73764     17.66887         0.007094     -0.003054     -0.001415
     13.72038      5.67134     10.18293         0.209676      0.157068      0.644095
     13.69271      1.06880     15.07582        -0.001479     -0.002015     -0.000663
      1.63456      8.33987     10.36453        -0.033923     -0.465824      0.154551
      1.55260      3.77435     15.26332         0.001320     -0.000721      0.000281
     13.76831      3.16119     12.53308         0.158430      0.397748     -0.367163
     13.76563      8.37671     17.27665         0.000386     -0.000019     -0.000591
      1.99440      3.17314     10.17666        -0.108355     -0.149824      0.699876
      1.87691      8.10816     14.98397        -0.002025     -0.000945     -0.001696
     13.48051      8.37930     12.86886         0.043168      0.034129     -0.328897
     13.25797      4.29437     17.79881         0.002859     -0.002221      0.001761
      2.09211      6.05039     17.21033         0.001298      0.000693      0.000528
      2.02729      0.87737     12.46815        -0.024173      0.375508     -0.450944
     10.07171      5.79402     10.14663         0.166280     -0.616535      0.167434
     10.17133      1.23917     14.88715         0.000260     -0.002058     -0.000599
     11.97051      5.66181     12.67660        -0.239850      0.431541     -0.305600
     11.90641      1.46929     17.57927         0.001668      0.001705      0.001428
      5.30592      8.58168     17.56280         0.001937      0.001083     -0.003384
     13.47320      2.42705     18.68670         0.000927      0.001064     -0.000543
      3.51915      1.38503     17.62626        -0.003423      0.000187      0.001317
    total drift:                                0.009316     -0.005444     -0.028299

  FREE ENERGIE OF THE ION-ELECTRON SYSTEM (eV)
  free  energy   TOTEN  =      -536.81111451 eV

  energy  without entropy=     -536.80948507  energy(sigma->0) =     -536.81070715

 d Force = 0.1619120E-04[ 0.126E-04, 0.197E-04]  d Energy = 0.3444489E-05 0.127E-04
 d Force = 0.8553538E-01[ 0.855E-01, 0.855E-01]  d Ewald  = 0.8553538E-01 0.422E-09

 Conjugate gradient step on ions:
 trial-energy change:   -0.000003  1 .order   -0.000016   -0.000020   -0.000013
  (g-gl).g = 0.112E-04      g.g   = 0.115E-04  gl.gl    = 0.155E-04
 g(Force)  = 0.115E-04   g(Stress)= 0.000E+00 ortho     = 0.374E-06
 gamma     =   0.72150
 trial     =   1.67351
 opt step  =   4.65732  (harmonic =   4.65732) maximal distance =0.00062888
 next E    =  -536.811139   (d E  =  -0.00003)

 reached required accuracy - stopping structural energy minimisation