 vasp.5.4.1 05Feb16 (build Mar 19 2020 08:54:17) complex

 executed on           IFC91_ompi date 2021.11.07  09:55:55

 INCAR:
 POTCAR:    PAW_PBE Al 04Jan2001
 POTCAR:    PAW_PBE Nb_sv 25May2007
 POTCAR:    PAW_PBE Ta 17Jan2003
 POTCAR:    PAW_PBE Ti 08Apr2002
 POTCAR:   PAW_PBE Zr 08Apr2002
 POTCAR:    PAW_PBE O 08Apr2002

 POTCAR:    PAW_PBE Al 04Jan2001
   VRHFIN =Al: s2p1

   TITEL  = PAW_PBE Al 04Jan2001
   POMASS =   26.981; ZVAL   =    3.000    mass and valenz
   ENMAX  =  240.300; ENMIN  =  180.225 eV

 POTCAR:    PAW_PBE Nb_sv 25May2007
   VRHFIN =Nb: 4p5s4d

   TITEL  = PAW_PBE Nb_sv 25May2007
   POMASS =   92.910; ZVAL   =   13.000    mass and valenz
   ENMAX  =  293.235; ENMIN  =  219.927 eV

 POTCAR:    PAW_PBE Ta 17Jan2003
   VRHFIN =Ta:  6s5d

   TITEL  = PAW_PBE Ta 17Jan2003
   POMASS =  180.948; ZVAL   =    5.000    mass and valenz
   ENMAX  =  223.667; ENMIN  =  167.750 eV

 POTCAR:    PAW_PBE Ti 08Apr2002
   VRHFIN =Ti: d3 s1

   TITEL  = PAW_PBE Ti 08Apr2002
   POMASS =   47.880; ZVAL   =    4.000    mass and valenz
   ENMAX  =  178.330; ENMIN  =  133.747 eV

 POTCAR:   PAW_PBE Zr 08Apr2002
   VRHFIN =Zr: 5s4d5p

   TITEL  = PAW_PBE Zr 08Apr2002
   POMASS =   91.224; ZVAL   =    4.000    mass and valenz
   ENMAX  =  154.632; ENMIN  =  115.974 eV
   QCUT   =   -3.371; QGAM   =    6.742    optimization parameters

   Description
     l     E      TYP  RCUT    TYP  RCUT
     2   .000     23  3.000
     2   .000     23  3.000
     0   .000     23  3.000
     0  2.000     23  3.000
     1  -.400     23  3.000
     3   .000      7   .000

 POTCAR:    PAW_PBE O 08Apr2002
   VRHFIN =O: s2p4

   TITEL  = PAW_PBE O 08Apr2002
   POMASS =   16.000; ZVAL   =    6.000    mass and valenz
   ENMAX  =  400.000; ENMIN  =  300.000 eV

 WARNING: PSMAXN for non-local potential too small
          PSMAXN should be >   12.5490833729506       NTYP=           5
  PAW_PBE Al 04Jan2001                  :
  PAW_PBE Nb_sv 25May2007               :
  PAW_PBE Ta 17Jan2003                  :
  PAW_PBE Ti 08Apr2002                  :
 PAW_PBE Zr 08Apr2002                   :
  PAW_PBE O 08Apr2002                   :

 POSCAR: Al Nb Ta Ti Zr
  positions in direct lattice
  velocities in cartesian coordinates
 exchange correlation table for  LEXCH =        8
   RHO(1)=    0.500       N(1)  =     2000
   RHO(2)=  100.500       N(2)  =     4000

 ion  position               nearest neighbor table
   1  0.623  0.867  0.376-  34 2.83  25 2.88  24 2.88   9 2.88  13 2.90   4 2.91  61 2.93  15 3.16
                            41 3.35  17 3.40
   2  0.622  0.373  0.544-  86 1.89  31 2.69   7 2.81  33 2.81  23 2.81  62 2.83  10 2.84  26 2.95
                            16 3.01  14 3.19  17 3.24  42 3.29  18 3.39
   3  0.590  0.641  0.639-  75 1.76  79 1.82  78 1.82  86 1.84  85 2.04  32 2.72   8 2.77  26 2.84
                            23 2.95  45 3.00  33 3.10
   4  0.618  0.084  0.450-  31 2.80  24 2.86  34 2.87  13 2.88   1 2.91  25 2.92   7 2.92  62 3.02
                            10 3.10  28 3.16  46 3.24
   5  0.973  0.642  0.547-  82 2.08  30 2.66  27 2.78  63 2.88  42 2.89  52 2.96  56 3.03  47 3.03
                            57 3.18  59 3.28  54 3.51
   6  0.980  0.121  0.378-  29 2.80  28 2.80  53 2.91  41 2.96  51 3.05  55 3.05  60 3.08  57 3.37

   7  0.729  0.343  0.458-  28 2.77   2 2.81  29 2.83  31 2.85  17 2.89  11 2.90   4 2.92  63 3.07
                            62 3.15  42 3.19
   8  0.724  0.857  0.638-  77 2.04  71 2.05  78 2.06  79 2.13   3 2.77  27 2.79  12 2.88  32 2.89
                            18 2.96  30 2.96  64 3.24
   9  0.517  0.608  0.367-  35 2.84  15 2.85  17 2.87   1 2.88  11 2.89  61 2.95  43 3.10
  10  0.512  0.122  0.548-  16 2.70  12 2.83   2 2.84  36 2.88  18 2.91  62 3.03  44 3.05  46 3.10
                             4 3.10
  11  0.618  0.343  0.369-  24 2.75  34 2.83  31 2.87   9 2.89   7 2.90  61 2.96  43 3.27
  12  0.619  0.869  0.548-  85 2.33  23 2.78  10 2.83  62 2.88   8 2.88  13 2.94  32 3.02  25 3.04
                            33 3.04  44 3.29
  13  0.742  0.843  0.462-  17 2.87   4 2.88   1 2.90  30 2.91  28 2.94  12 2.94  63 2.98  41 3.05
                            57 3.27
  14  0.753  0.398  0.639-  76 1.99  74 2.02  79 2.30  42 2.82  27 2.91  64 2.97  58 3.01  18 3.04
                             2 3.19
  15  0.394  0.847  0.369-  22 2.68  19 2.76  25 2.83  34 2.84   9 2.85  39 2.98   1 3.16  46 3.43

  16  0.404  0.356  0.541-  84 2.13  10 2.70  33 2.71  31 2.75  26 2.75  21 2.78  20 2.91  37 2.96
                            40 2.96   2 3.01  46 3.39
  17  0.619  0.602  0.458-  33 2.78  25 2.81  31 2.85   9 2.87  13 2.87   7 2.89  61 2.95  35 3.03
                            23 3.13   2 3.24   1 3.40  63 3.44
  18  0.630  0.134  0.635-  74 2.04  72 2.06  71 2.09  32 2.70  10 2.91  62 2.91   8 2.96  26 3.01
                            14 3.04  36 3.19  64 3.21   2 3.39
  19  0.279  0.834  0.451-  15 2.76  35 2.94  46 2.96  39 2.97  25 2.99  44 3.05  60 3.07  51 3.08
                            47 3.12  56 3.28
  20  0.272  0.367  0.623-  69 2.03  70 2.04  67 2.21  84 2.28  16 2.91  36 2.96  59 3.02  21 3.06
                            26 3.07  40 3.07  48 3.10  52 3.13  45 3.13
  21  0.276  0.582  0.541-  84 2.08  80 2.11  82 2.14  16 2.78  37 2.98  45 3.00  35 3.01  20 3.06
                            33 3.06  47 3.07  44 3.08  59 3.08  52 3.12  56 3.21
  22  0.283  0.077  0.361-  15 2.68  46 2.97  43 2.97  34 2.99  51 3.02  55 3.10  60 3.10
  23  0.726  0.623  0.557-  79 2.16  86 2.21  12 2.78   2 2.81  30 2.84  27 2.89  42 2.91   3 2.95
                            17 3.13  63 3.39
  24  0.740  0.115  0.366-  29 2.73  11 2.75  28 2.85   4 2.86   1 2.88  41 3.00
  25  0.496  0.836  0.458-  35 2.78  17 2.81  15 2.83   1 2.88   4 2.92  44 2.98  19 2.99  46 2.99
                            12 3.04  33 3.13
  26  0.494  0.380  0.629-  70 1.93  74 1.99  75 2.01  86 2.26  16 2.75  36 2.82   3 2.84   2 2.95
                            18 3.01  20 3.07  45 3.15
  27  0.869  0.652  0.633-  79 2.03  76 2.04  68 2.06  77 2.08  58 2.72   5 2.78   8 2.79  23 2.89
                            14 2.91  54 2.98  30 2.99  42 3.38
  28  0.847  0.110  0.455-   7 2.77   6 2.80  24 2.85  57 2.90  62 2.91  13 2.94  53 2.98  50 3.12
                            29 3.15   4 3.16  41 3.36
  29  0.852  0.349  0.376-  24 2.73   6 2.80   7 2.83  53 2.94  61 2.98  49 3.07  28 3.15  63 3.25

  30  0.852  0.858  0.552-  83 2.01  77 2.40   5 2.66  23 2.84  13 2.91   8 2.96  57 2.97  27 2.99
                            62 3.03  50 3.11  54 3.51
  31  0.522  0.339  0.461-   2 2.69  16 2.75   4 2.80  17 2.85   7 2.85  35 2.86  11 2.87  46 2.95
                            43 3.11
  32  0.517  0.905  0.644-  78 1.90  72 1.93  65 2.00  85 2.05  36 2.64  18 2.70   3 2.72   8 2.89
                            12 3.02  45 3.10  44 3.29
  33  0.498  0.605  0.538-  85 2.08  86 2.09  16 2.71  35 2.76  17 2.78   2 2.81  44 3.00  12 3.04
                            21 3.06   3 3.10  25 3.13  45 3.23
  34  0.499  0.102  0.365-  11 2.83   1 2.83  15 2.84   4 2.87  43 2.91  46 2.98  22 2.99
  35  0.400  0.580  0.451-  33 2.76  25 2.78   9 2.84  31 2.86  37 2.88  39 2.93  19 2.94  21 3.01
                            17 3.03  43 3.08
  36  0.399  0.120  0.635-  72 1.99  70 2.00  67 2.04  65 2.14  32 2.64  26 2.82  10 2.88  20 2.96
                            38 2.98  40 3.19  18 3.19  44 3.43
  37  0.255  0.366  0.464-  84 2.14  35 2.88  16 2.96  21 2.98  47 3.02  60 3.04  43 3.05  55 3.08
                            46 3.08  40 3.16  52 3.29  39 3.39
  38  0.230  0.925  0.635-  73 1.91  65 1.99  67 2.07  80 2.13  56 2.85  54 2.88  48 2.92  36 2.98
                            59 3.14  40 3.19  44 3.21  45 3.23
  39  0.252  0.614  0.376-  35 2.93  19 2.97  15 2.98  47 3.07  43 3.07  51 3.07  55 3.08  37 3.39
                            49 3.53
  40  0.253  0.136  0.546-  84 2.23  67 2.39  16 2.96  60 3.04  20 3.07  46 3.10  44 3.12  56 3.15
                            37 3.16  36 3.19  38 3.19  52 3.25  48 3.28  50 3.53
  41  0.865  0.859  0.370-   6 2.96  24 3.00  61 3.05  13 3.05  57 3.06  49 3.12   1 3.35  28 3.36
                            51 3.49  63 3.53
  42  0.860  0.388  0.552-  81 2.30  14 2.82   5 2.89  23 2.91  62 3.11   7 3.19  58 3.23  52 3.24
                            63 3.24   2 3.29  50 3.35  27 3.38  53 3.39  64 3.54
  43  0.381  0.352  0.373-  34 2.91  22 2.97  37 3.05  39 3.07  35 3.08   9 3.10  31 3.11  55 3.26
                            11 3.27  46 3.29
  44  0.380  0.866  0.548-  80 2.32  85 2.38  65 2.62  25 2.98  33 3.00  19 3.05  10 3.05  21 3.08
                            45 3.11  40 3.12  38 3.21  32 3.29  12 3.29  56 3.34  46 3.42  36 3.43
  45  0.373  0.659  0.635-  69 2.08  75 2.08  80 2.20  85 2.29  65 2.32  21 3.00   3 3.00  32 3.10
                            44 3.11  20 3.13  26 3.15  59 3.18  33 3.23  38 3.23
  46  0.384  0.104  0.456-  31 2.95  19 2.96  22 2.97  34 2.98  25 2.99  37 3.08  10 3.10  40 3.10
                             4 3.24  60 3.27  43 3.29  16 3.39  44 3.42  15 3.43
  47  0.117  0.611  0.465-  82 2.27  37 3.02   5 3.03  21 3.07  39 3.07  19 3.12  53 3.14  49 3.15
                            57 3.17  56 3.24  52 3.24  63 3.42  51 3.52  55 3.80
  48  0.098  0.165  0.635-  66 2.12  67 2.13  81 2.25  38 2.92  58 3.03  54 3.05  50 3.06  20 3.10
                            52 3.14  64 3.27  40 3.28
  49  0.996  0.593  0.368-  63 3.05  29 3.07  41 3.12  47 3.15  51 3.16  55 3.23  53 3.44  39 3.53
                            61 3.65  57 3.82
  50  0.998  0.102  0.539-  83 2.10  81 2.21  57 2.98  52 3.06  48 3.06  56 3.08  30 3.11  28 3.12
                            60 3.18  53 3.22  42 3.35  64 3.48  40 3.53  62 3.68  54 3.72
  51  0.119  0.872  0.375-  60 3.00  22 3.02   6 3.05  39 3.07  19 3.08  57 3.16  49 3.16  41 3.49
                            47 3.52
  52  0.095  0.388  0.552-  84 2.15  81 2.17  82 2.22   5 2.96  50 3.06  53 3.08  21 3.12  20 3.13
                            48 3.14  59 3.18  42 3.24  47 3.24  40 3.25  37 3.29  58 3.35
  53  1.000  0.331  0.453-   6 2.91  29 2.94  28 2.98  60 3.06  52 3.08  63 3.08  55 3.09  47 3.14
                            50 3.22  42 3.39  49 3.44
  54  0.026  0.865  0.644-  77 2.12  73 2.13  68 2.26  59 2.86  38 2.88  27 2.98  48 3.05  56 3.13
                            64 3.40  30 3.51   5 3.51  50 3.72
  55  0.145  0.332  0.368-   6 3.05  37 3.08  39 3.08  53 3.09  22 3.10  49 3.23  60 3.24  43 3.26
                            47 3.80
  56  0.138  0.852  0.546-  80 2.26  82 2.26  38 2.85   5 3.03  50 3.08  54 3.13  57 3.14  40 3.15
                            59 3.18  21 3.21  47 3.24  19 3.28  44 3.34  60 3.50
  57  0.979  0.876  0.465-  28 2.90  30 2.97  50 2.98  41 3.06  63 3.11  60 3.13  56 3.14  51 3.16
                            47 3.17   5 3.18  13 3.27   6 3.37  49 3.82
  58  0.969  0.415  0.655-  76 2.07  66 2.10  68 2.21  81 2.22  27 2.72  14 3.01  48 3.03  64 3.09
                            59 3.20  42 3.23  52 3.35
  59  0.143  0.622  0.629-  69 2.16  68 2.16  73 2.21  80 2.27  82 2.31  54 2.86  20 3.02  21 3.08
[...]
     0.000000000  0.000000000 27.662570434     0.000000000  0.000000000  0.036149931

  length of vectors
    13.771350861  9.564481735 27.662570434     0.072614518  0.104553496  0.036149931

 FORCES acting on ions
    electron-ion (+dipol)            ewald-force                    non-local-force                 convergence-correction
   -.481E+02 -.355E+02 0.488E+03   0.480E+02 0.352E+02 -.487E+03   0.114E+00 0.951E-01 -.833E+00   0.379E-03 -.166E-02 0.116E-02
   -.523E+02 0.253E+02 0.639E+02   0.516E+02 -.272E+02 -.668E+02   0.675E+00 0.184E+01 0.288E+01   0.404E-03 -.567E-03 -.697E-03
   0.359E+02 0.272E+02 -.379E+03   -.374E+02 -.273E+02 0.381E+03   0.151E+01 0.632E-01 -.172E+01   0.111E-02 -.178E-03 -.270E-03
   0.326E+01 0.106E+02 0.324E+03   -.312E+01 -.105E+02 -.324E+03   -.907E-01 -.259E+00 0.240E+00   0.365E-03 0.377E-03 0.153E-02
   -.149E+02 -.274E+01 0.555E+02   0.109E+02 0.323E+01 -.566E+02   0.405E+01 -.489E+00 0.108E+01   -.585E-03 -.320E-03 -.164E-03
   -.422E+02 0.561E+01 0.440E+03   0.415E+02 -.501E+01 -.437E+03   0.676E+00 -.103E+01 -.229E+01   -.219E-03 -.342E-03 0.869E-03
   -.374E+03 0.820E+01 0.108E+04   0.374E+03 -.759E+01 -.108E+04   0.510E+00 -.257E+00 0.115E+01   -.376E-02 0.369E-02 0.306E-02
   -.251E+03 -.976E+02 -.143E+04   0.249E+03 0.991E+02 0.143E+04   0.165E+01 -.149E+01 0.151E+01   -.898E-03 0.903E-03 -.431E-02
   0.837E+02 -.151E+02 0.211E+04   -.833E+02 0.141E+02 -.210E+04   -.600E+00 0.541E+00 -.443E+01   0.305E-02 -.990E-03 0.512E-02
   0.139E+03 0.333E+02 0.178E+03   -.139E+03 -.334E+02 -.177E+03   0.285E+00 0.893E-01 -.157E+01   0.410E-02 0.459E-02 -.339E-02
   -.620E+02 0.145E+03 0.217E+04   0.628E+02 -.144E+03 -.217E+04   -.585E+00 -.371E+00 -.281E+01   0.852E-03 0.831E-02 0.645E-02
   -.398E+02 -.381E+02 0.288E+03   0.423E+02 0.389E+02 -.288E+03   -.246E+01 -.840E+00 0.389E+00   0.543E-02 0.280E-02 -.124E-02
   -.357E+03 -.641E+01 0.132E+04   0.358E+03 0.591E+01 -.132E+04   -.836E+00 0.874E+00 -.119E+01   -.132E-02 -.289E-02 0.319E-03
   -.286E+03 0.231E+03 -.130E+04   0.290E+03 -.233E+03 0.130E+04   -.345E+01 0.168E+01 0.349E+00   -.318E-03 -.135E-02 -.511E-02
   0.277E+03 -.124E+03 0.201E+04   -.278E+03 0.125E+03 -.201E+04   0.284E+00 -.398E+00 -.434E+01   0.385E-02 -.576E-02 0.238E-02
   0.187E+03 -.392E+02 0.276E+03   -.185E+03 0.390E+02 -.276E+03   -.201E+01 0.229E+00 0.155E+00   0.207E-02 -.149E-02 -.266E-02
   -.321E+02 -.105E+02 0.436E+03   0.315E+02 0.105E+02 -.437E+03   0.936E+00 0.286E-01 0.319E+00   0.106E-02 -.966E-03 -.985E-03
   -.289E+02 -.329E+02 -.497E+03   0.283E+02 0.325E+02 0.496E+03   0.630E+00 0.452E+00 0.103E+01   0.179E-02 0.503E-03 -.171E-02
   0.160E+03 -.215E+02 0.424E+03   -.159E+03 0.215E+02 -.425E+03   -.137E+01 0.379E+00 0.862E+00   0.164E-02 -.122E-02 0.238E-03
   0.177E+03 0.886E+01 -.474E+03   -.175E+03 -.674E+01 0.475E+03   -.124E+01 -.213E+01 -.434E+00   0.829E-04 0.472E-03 -.142E-02
   0.552E+02 -.554E+02 0.115E+03   -.531E+02 0.557E+02 -.117E+03   -.208E+01 -.319E+00 0.126E+01   0.685E-03 -.147E-02 -.239E-03
   0.113E+03 -.539E+02 0.615E+03   -.112E+03 0.539E+02 -.612E+03   -.798E+00 -.167E+00 -.279E+01   0.807E-03 0.288E-04 0.733E-03
   -.144E+03 0.450E+02 0.995E+02   0.146E+03 -.439E+02 -.101E+03   -.126E+01 -.109E+01 0.134E+01   0.232E-03 -.422E-03 -.518E-03
   -.968E+02 0.609E+02 0.663E+03   0.962E+02 -.604E+02 -.660E+03   0.486E+00 -.482E+00 -.273E+01   -.748E-03 -.296E-03 0.154E-02
   0.587E+02 -.284E+02 0.357E+03   -.596E+02 0.278E+02 -.357E+03   0.102E+01 0.731E+00 -.574E+00   0.118E-02 -.912E-03 -.358E-03
   0.584E+02 0.227E+02 -.398E+03   -.591E+02 -.230E+02 0.399E+03   0.697E+00 0.339E+00 -.601E+00   0.584E-03 0.986E-04 -.154E-02
   -.165E+03 0.418E+01 -.325E+03   0.165E+03 -.523E+01 0.324E+03   -.153E+00 0.106E+01 0.128E+01   -.776E-03 -.275E-03 -.870E-03
   -.147E+03 0.661E+01 0.393E+03   0.146E+03 -.669E+01 -.394E+03   0.241E+00 -.196E+00 0.177E+00   -.927E-03 0.857E-05 0.169E-02
   -.144E+03 -.509E+01 0.630E+03   0.143E+03 0.509E+01 -.627E+03   0.851E+00 -.815E-01 -.256E+01   -.118E-02 0.141E-02 0.200E-02
   -.171E+03 0.460E+02 0.862E+02   0.169E+03 -.461E+02 -.880E+02   0.157E+01 0.145E+00 0.179E+01   -.114E-02 -.247E-03 -.245E-03
   0.651E+02 0.211E+02 0.380E+03   -.652E+02 -.205E+02 -.380E+03   0.476E-01 -.139E+00 -.252E+00   0.744E-03 0.935E-03 0.806E-03
   0.952E+02 -.275E+02 -.516E+03   -.939E+02 0.288E+02 0.516E+03   -.126E+01 -.126E+01 0.795E+00   0.224E-02 -.213E-03 -.668E-03
   0.832E+02 -.724E+01 0.155E+03   -.839E+02 0.706E+01 -.156E+03   0.677E+00 0.179E+00 0.171E+01   0.484E-03 -.142E-02 -.123E-02
   0.304E+02 0.740E+00 0.642E+03   -.311E+02 -.789E+00 -.640E+03   0.557E+00 0.902E-02 -.245E+01   0.734E-03 0.833E-04 0.121E-02
   0.117E+03 0.230E+01 0.370E+03   -.116E+03 -.254E+01 -.370E+03   -.938E+00 0.847E+00 -.465E+00   0.131E-02 -.109E-02 -.553E-04
   0.945E+02 0.176E+02 -.429E+03   -.931E+02 -.160E+02 0.428E+03   -.143E+01 -.162E+01 0.135E+01   0.612E-03 0.135E-02 -.109E-02
   0.114E+03 0.195E+02 0.442E+03   -.114E+03 -.194E+02 -.443E+03   0.112E+00 -.333E+00 0.153E+01   0.140E-02 0.672E-03 0.797E-03
   0.102E+03 -.540E+02 -.403E+03   -.104E+03 0.538E+02 0.403E+03   0.144E+01 0.213E+00 0.763E+00   -.122E-02 -.280E-03 -.482E-03
   0.122E+03 0.365E+02 0.589E+03   -.123E+03 -.363E+02 -.586E+03   0.136E+00 -.549E+00 -.305E+01   0.137E-02 -.426E-03 0.111E-02
   0.129E+03 0.885E+02 0.835E+02   -.129E+03 -.891E+02 -.845E+02   0.109E+00 0.599E+00 0.978E+00   0.504E-03 0.136E-02 -.132E-03
   -.930E+02 -.139E+01 0.634E+03   0.932E+02 0.145E+01 -.630E+03   -.352E+00 -.520E-01 -.312E+01   -.983E-03 -.144E-02 0.147E-02
   -.104E+03 -.158E+02 0.803E+02   0.104E+03 0.168E+02 -.800E+02   0.629E+00 -.102E+01 -.295E+00   -.117E-02 0.178E-03 -.176E-03
   0.123E+03 0.313E+02 0.610E+03   -.123E+03 -.315E+02 -.607E+03   -.216E+00 0.369E+00 -.257E+01   0.119E-02 0.163E-02 0.168E-02
   0.130E+03 -.250E+02 0.956E+02   -.130E+03 0.261E+02 -.980E+02   -.188E+00 -.108E+01 0.237E+01   0.786E-03 0.832E-04 -.686E-03
   0.888E+02 -.378E+01 -.450E+03   -.886E+02 0.122E+01 0.449E+03   -.167E+00 0.256E+01 0.683E+00   0.160E-03 -.107E-02 -.286E-03
   0.107E+03 0.522E+01 0.396E+03   -.107E+03 -.542E+01 -.396E+03   0.389E+00 -.358E-01 -.327E+00   0.131E-02 0.113E-02 0.155E-02
   0.482E+02 -.748E+01 0.402E+03   -.482E+02 0.747E+01 -.403E+03   0.184E+00 0.267E+00 0.415E+00   -.669E-03 -.635E-03 0.583E-03
   -.187E+02 0.303E+02 -.406E+03   0.179E+02 -.311E+02 0.405E+03   0.780E+00 0.843E+00 0.158E+01   -.476E-03 0.465E-03 -.512E-03
   -.347E+02 -.125E+01 0.592E+03   0.350E+02 0.153E+01 -.589E+03   -.142E+00 -.202E+00 -.300E+01   -.110E-02 0.482E-03 0.122E-02
   -.109E+03 0.252E+02 0.137E+03   0.109E+03 -.256E+02 -.137E+03   0.247E+00 0.422E+00 0.138E+00   -.829E-03 0.325E-03 0.304E-03
   0.528E+02 -.528E+01 0.576E+03   -.527E+02 0.452E+01 -.572E+03   0.564E-01 0.251E+00 -.314E+01   -.101E-02 -.609E-03 0.734E-03
   0.584E+02 0.286E+02 0.450E+02   -.579E+02 -.290E+02 -.447E+02   -.451E+00 0.372E+00 -.297E+00   -.435E-03 0.149E-03 0.155E-03
   -.529E+02 0.114E+01 0.385E+03   0.532E+02 -.854E+00 -.386E+03   -.272E+00 0.505E+00 -.151E+00   -.670E-03 0.541E-03 0.122E-02
   -.495E+02 -.678E+02 -.425E+03   0.510E+02 0.673E+02 0.423E+03   -.144E+01 0.464E+00 0.199E+01   -.514E-03 -.149E-03 -.669E-03
   0.418E+02 0.358E+01 0.591E+03   -.412E+02 -.340E+01 -.587E+03   -.830E+00 -.335E+00 -.336E+01   -.137E-03 0.615E-03 0.117E-02
   0.677E+02 -.803E+02 0.882E+02   -.675E+02 0.812E+02 -.883E+02   -.251E+00 -.873E+00 0.873E-01   -.101E-02 -.300E-03 0.371E-03
   -.852E+02 -.876E+00 0.356E+03   0.847E+02 0.585E+00 -.356E+03   0.491E+00 -.467E-01 -.113E+01   -.164E-02 -.650E-03 0.343E-03
   -.133E+03 0.404E+01 -.493E+03   0.130E+03 -.447E+01 0.492E+03   0.270E+01 0.421E+00 0.122E+01   -.566E-03 0.476E-05 -.880E-03
   0.595E+02 0.399E+02 -.376E+03   -.592E+02 -.398E+02 0.377E+03   -.367E+00 -.790E-01 -.703E+00   -.653E-03 -.416E-03 -.420E-03
   0.506E+02 0.285E+01 0.382E+03   -.500E+02 -.298E+01 -.382E+03   -.635E+00 0.338E+00 -.469E+00   -.482E-03 0.801E-03 0.102E-02
[...]
   0.379E+02 -.417E+02 -.984E+03   -.353E+02 0.379E+02 0.100E+04   -.259E+01 0.378E+01 -.192E+02   -.205E-02 -.108E-02 -.645E-03
   0.880E+02 0.570E+02 -.976E+03   -.922E+02 -.508E+02 0.992E+03   0.418E+01 -.619E+01 -.156E+02   0.388E-02 -.330E-03 -.241E-02
   0.130E+03 0.832E+01 -.104E+04   -.136E+03 -.139E+02 0.106E+04   0.582E+01 0.553E+01 -.214E+02   0.669E-03 0.212E-03 -.571E-03
   -.194E+03 -.241E+02 -.114E+04   0.191E+03 0.300E+02 0.116E+04   0.300E+01 -.591E+01 -.206E+02   -.202E-02 -.186E-02 -.267E-02
   -.341E+03 -.377E+02 -.660E+03   0.344E+03 0.439E+02 0.663E+03   -.333E+01 -.626E+01 -.280E+01   -.218E-02 0.923E-04 -.847E-03
   0.124E+03 0.279E+02 -.121E+04   -.123E+03 -.269E+02 0.124E+04   -.109E+01 -.100E+01 -.248E+02   0.395E-02 -.709E-03 -.133E-02
   -.110E+03 0.622E+02 -.651E+03   0.115E+03 -.671E+02 0.657E+03   -.444E+01 0.489E+01 -.596E+01   -.367E-03 0.836E-04 -.796E-03
   0.112E+03 -.502E+02 -.212E+03   -.112E+03 0.511E+02 0.211E+03   -.125E+00 -.893E+00 0.154E+01   -.750E-03 -.130E-02 0.714E-04
   -.107E+03 -.556E+01 -.204E+03   0.102E+03 0.431E+01 0.205E+03   0.490E+01 0.123E+01 -.676E+00   -.911E-03 0.895E-03 0.280E-04
   0.117E+03 -.220E+02 0.106E+03   -.116E+03 0.232E+02 -.106E+03   -.393E+00 -.112E+01 -.163E+00   -.210E-02 -.226E-03 0.351E-03
   -.186E+03 -.471E+02 -.517E+02   0.187E+03 0.468E+02 0.525E+02   -.929E+00 0.268E+00 -.782E+00   -.193E-02 0.731E-03 -.306E-04
   0.270E+03 0.426E+02 0.125E+03   -.273E+03 -.438E+02 -.129E+03   0.302E+01 0.113E+01 0.386E+01   0.309E-02 -.538E-03 0.469E-03
   0.199E+03 0.206E+02 -.282E+03   -.200E+03 -.206E+02 0.279E+03   0.791E+00 -.697E-01 0.348E+01   0.205E-02 -.638E-03 -.465E-03
   0.988E+01 0.640E+02 -.164E+03   -.898E+01 -.661E+02 0.165E+03   -.901E+00 0.206E+01 -.117E+01   0.252E-02 -.180E-02 -.108E-03
   -.999E+01 0.648E+01 0.254E+03   0.114E-12 -.853E-13 -.242E-11   0.998E+01 -.648E+01 -.254E+03   0.159E-01 0.269E-02 -.840E-02

 POSITION                                       TOTAL-FORCE (eV/Angst)
      8.57631      8.29685     10.39845        -0.022609     -0.148799      0.071942
      8.56397      3.56411     15.04715        -0.002642     -0.014288      0.001069
      8.12535      6.12785     17.68860        -0.012447     -0.010154      0.014813
      8.51616      0.79995     12.43874         0.054774     -0.140585      0.149811
     13.39974      6.14397     15.12446         0.010050     -0.003510      0.014294
     13.49094      1.15316     10.44749        -0.015931     -0.430333     -0.066485
     10.03344      3.28428     12.67411         0.123384      0.355949     -0.543946
      9.97663      8.19472     17.65184         0.004471     -0.008885      0.006614
      7.12524      5.81577     10.15765        -0.191148     -0.471033      0.975338
      7.04892      1.16392     15.15072         0.003139     -0.003886     -0.001583
      8.51222      3.28036     10.20450         0.218820      0.092119      0.692034
      8.52026      8.30852     15.16743         0.006428     -0.006167      0.001990
     10.22263      8.06723     12.77991         0.205076      0.368273      0.005385
     10.36753      3.80776     17.66962         0.005592     -0.005849      0.004542
      5.42664      8.10481     10.20639         0.252912      0.145835      0.953124
      5.56081      3.40648     14.96603         0.004896     -0.004916      0.002569
      8.52843      5.75423     12.65640         0.270183     -0.028629     -0.128884
      8.67593      1.28433     17.55862         0.016015      0.017023     -0.021737
      3.84829      7.97317     12.47259        -0.275625      0.342592     -0.182285
      3.74237      3.50820     17.23264         0.009137     -0.013737     -0.015026
      3.80394      5.56552     14.96901         0.006598     -0.007024     -0.000839
      3.90063      0.73891     10.00000         0.499588     -0.160818      0.260356
      9.99311      5.95964     15.41286         0.000145     -0.005045     -0.001362
     10.19112      1.10470     10.13736        -0.129749      0.003561      0.478609
      6.82945      7.99424     12.66670         0.090944      0.170717     -0.231559
      6.80414      3.63202     17.41347         0.001417     -0.009335      0.006171
     11.96501      6.23636     17.50142         0.007132      0.003388      0.008834
     11.66772      1.05372     12.57547        -0.563123     -0.275414     -1.017219
     11.73919      3.33868     10.41199        -0.255536     -0.081520      0.632162
     11.72755      8.20617     15.26243         0.001947     -0.003920     -0.003074
      7.18522      3.24644     12.75390        -0.038581      0.483649     -0.618135
      7.12615      8.65918     17.82671         0.011895     -0.003494     -0.000523
      6.85495      5.78353     14.87972         0.009202     -0.006259      0.002981
      6.87795      0.97560     10.08695        -0.110069     -0.039718      0.244789
      5.51084      5.55012     12.48419        -0.320490      0.603267     -0.352073
      5.49098      1.14628     17.57859         0.003430      0.000549      0.002875
      3.51249      3.50019     12.83519        -0.024843     -0.268505     -0.097694
      3.16081      8.85095     17.55998        -0.007228     -0.004231      0.007514
      3.46798      5.87237     10.40868         0.004539     -0.342037     -0.212952
      3.48421      1.30096     15.10735         0.001343     -0.002807     -0.001007
     11.91771      8.21633     10.24534        -0.217570      0.003429      0.736331
     11.84157      3.71128     15.26325         0.001803     -0.002413      0.001672
      5.24135      3.36543     10.32679         0.115951      0.130731      0.098481
      5.23123      8.28368     15.16878        -0.000656     -0.002315      0.004633
      5.13232      6.29826     17.55728        -0.000860     -0.004594     -0.007050
      5.28930      0.99064     12.60849         0.215508     -0.230893     -0.305171
      1.60538      5.84491     12.85122         0.209313      0.252367     -0.839270
      1.34760      1.57688     17.57776         0.000440     -0.003160      0.000660
     13.72038      5.67134     10.18293         0.250491      0.083042      0.552220
     13.74894      0.97730     14.90280         0.000020      0.000131      0.003392
      1.63456      8.33987     10.36453         0.100139     -0.508427      0.077497
      1.30964      3.70706     15.26732         0.001624     -0.005103      0.002551
     13.76831      3.16119     12.53308         0.010003      0.793082     -0.450148
      0.35289      8.26898     17.82308        -0.000063      0.000430      0.003161
      1.99440      3.17314     10.17666        -0.194511     -0.156979      0.587530
      1.89685      8.14730     15.10769         0.001232      0.000216      0.001975
     13.48051      8.37930     12.86886        -0.041630     -0.338677     -0.975921
     13.33970      3.96543     18.11668         0.000916     -0.001374     -0.000226
      1.97394      5.95221     17.41313         0.003029     -0.006763      0.000958
      2.02729      0.87737     12.46815        -0.033047      0.206944     -0.587066
[...]
      7.06408      0.78567     18.74812         0.008720     -0.009116     -0.010560
      2.19252      7.70077     18.73861         0.010921     -0.009358     -0.003102
      8.53838      3.19009     18.27333         0.006505     -0.007135     -0.001774
      6.74676      5.34836     18.46717         0.005437     -0.012583      0.003898
     11.60418      4.78282     18.88839         0.003951     -0.004557      0.002094
     12.01530      8.30970     17.64086         0.008985     -0.009659      0.023940
      8.36629      7.57461     18.77026         0.007516     -0.007941      0.003740
      9.94091      6.06308     17.57146        -0.005959     -0.004560      0.004688
      3.54036      7.17034     16.31047        -0.001322     -0.007870     -0.002176
     13.54484      2.62263     16.35824         0.005979     -0.008992     -0.000655
      1.69180      5.89312     15.12189         0.003187     -0.006606      0.002052
     11.90346      0.56919     15.81745         0.003193     -0.015953      0.009988
      3.43145      3.52319     14.97819        -0.002058      0.000411     -0.002732
      6.91837      7.17540     16.42258         0.008030     -0.008165     -0.005301
      8.20758      4.97361     16.25213         0.000907     -0.005801     -0.005184
    total drift:                                0.007102      0.003466      0.002978

  FREE ENERGIE OF THE ION-ELECTRON SYSTEM (eV)
  free  energy   TOTEN  =      -721.55162483 eV

  energy  without entropy=     -721.55218549  energy(sigma->0) =     -721.55176500