 vasp.5.4.1 05Feb16 (build Mar 19 2020 08:54:17) complex

 executed on           IFC91_ompi date 2021.10.23  14:33:21

 INCAR:
 POTCAR:    PAW_PBE Al 04Jan2001
 POTCAR:    PAW_PBE Nb_sv 25May2007
 POTCAR:    PAW_PBE Ta 17Jan2003
 POTCAR:    PAW_PBE Ti 08Apr2002
 POTCAR:   PAW_PBE Zr 08Apr2002
 POTCAR:    PAW_PBE O 08Apr2002

 POTCAR:    PAW_PBE Al 04Jan2001
   VRHFIN =Al: s2p1

   TITEL  = PAW_PBE Al 04Jan2001
   POMASS =   26.981; ZVAL   =    3.000    mass and valenz
   ENMAX  =  240.300; ENMIN  =  180.225 eV

 POTCAR:    PAW_PBE Nb_sv 25May2007
   VRHFIN =Nb: 4p5s4d

   TITEL  = PAW_PBE Nb_sv 25May2007
   POMASS =   92.910; ZVAL   =   13.000    mass and valenz
   ENMAX  =  293.235; ENMIN  =  219.927 eV

 POTCAR:    PAW_PBE Ta 17Jan2003
   VRHFIN =Ta:  6s5d

   TITEL  = PAW_PBE Ta 17Jan2003
   POMASS =  180.948; ZVAL   =    5.000    mass and valenz
   ENMAX  =  223.667; ENMIN  =  167.750 eV

 POTCAR:    PAW_PBE Ti 08Apr2002
   VRHFIN =Ti: d3 s1

   TITEL  = PAW_PBE Ti 08Apr2002
   POMASS =   47.880; ZVAL   =    4.000    mass and valenz
   ENMAX  =  178.330; ENMIN  =  133.747 eV

 POTCAR:   PAW_PBE Zr 08Apr2002
   VRHFIN =Zr: 5s4d5p

   TITEL  = PAW_PBE Zr 08Apr2002
   POMASS =   91.224; ZVAL   =    4.000    mass and valenz
   ENMAX  =  154.632; ENMIN  =  115.974 eV
   QCUT   =   -3.371; QGAM   =    6.742    optimization parameters

   Description
     l     E      TYP  RCUT    TYP  RCUT
     2   .000     23  3.000
     2   .000     23  3.000
     0   .000     23  3.000
     0  2.000     23  3.000
     1  -.400     23  3.000
     3   .000      7   .000

 POTCAR:    PAW_PBE O 08Apr2002
   VRHFIN =O: s2p4

   TITEL  = PAW_PBE O 08Apr2002
   POMASS =   16.000; ZVAL   =    6.000    mass and valenz
   ENMAX  =  400.000; ENMIN  =  300.000 eV

 WARNING: PSMAXN for non-local potential too small
          PSMAXN should be >   12.5490833729506       NTYP=           5
  PAW_PBE Al 04Jan2001                  :
  PAW_PBE Nb_sv 25May2007               :
  PAW_PBE Ta 17Jan2003                  :
  PAW_PBE Ti 08Apr2002                  :
 PAW_PBE Zr 08Apr2002                   :
  PAW_PBE O 08Apr2002                   :

 POSCAR: Al Nb Ta Ti Zr
  positions in direct lattice
  velocities in cartesian coordinates
 exchange correlation table for  LEXCH =        8
   RHO(1)=    0.500       N(1)  =     2000
   RHO(2)=  100.500       N(2)  =     4000

 ion  position               nearest neighbor table
   1  0.623  0.867  0.376-  34 2.83  25 2.88  24 2.88   9 2.88  13 2.90   4 2.91  61 2.93  15 3.16
                            41 3.35  17 3.40
   2  0.622  0.390  0.547-  23 2.78  14 2.79  31 2.79  33 2.81  26 2.81  10 2.87   7 2.90  62 2.98
                            18 3.07  17 3.19  16 3.20   3 3.23  42 3.36
   3  0.617  0.632  0.628-  32 2.72  14 2.81  23 2.91  33 2.94  26 2.95   8 2.97  27 3.04   2 3.23
                            45 3.23
   4  0.618  0.084  0.450-  31 2.80  24 2.86  34 2.87  13 2.88   1 2.91  25 2.92   7 2.92  10 2.97
                            62 2.98  12 3.12  28 3.16  46 3.24
   5  0.979  0.638  0.551-  30 2.76  42 2.89  56 2.93  27 2.94  63 3.00  52 3.01  47 3.06  54 3.07
                            58 3.21  59 3.22  57 3.28
   6  0.980  0.121  0.378-  29 2.80  28 2.80  53 2.91  41 2.96  51 3.05  55 3.05  60 3.08  57 3.37

   7  0.729  0.343  0.458-  28 2.77  29 2.83  31 2.85  17 2.89   2 2.90  11 2.90   4 2.92  62 3.01
                            63 3.07  42 3.08
   8  0.729  0.896  0.618-  30 2.57  32 2.71  12 2.72  27 2.74  18 2.79   3 2.97  64 3.08  62 3.16

   9  0.517  0.608  0.367-  35 2.84  15 2.85  17 2.87   1 2.88  11 2.89  61 2.95  43 3.10
  10  0.513  0.135  0.541-  18 2.75  16 2.83  36 2.85   2 2.87  12 2.91  31 2.96   4 2.97  46 2.98
                            62 3.11  44 3.12
  11  0.618  0.343  0.369-  24 2.75  34 2.83  31 2.87   9 2.89   7 2.90  61 2.96  43 3.27
  12  0.621  0.875  0.536-  13 2.66  32 2.66   8 2.72  25 2.79  23 2.83  10 2.91  62 2.93  33 2.95
                             4 3.12  44 3.35
  13  0.742  0.843  0.462-  12 2.66  17 2.87  30 2.87   4 2.88   1 2.90  28 2.94  63 2.98  23 3.00
                            41 3.05  57 3.27  62 3.44
  14  0.745  0.404  0.627-  27 2.73   2 2.79   3 2.81  42 2.82  18 2.88  64 2.94  58 3.10
  15  0.394  0.847  0.369-  22 2.68  19 2.76  25 2.83  34 2.84   9 2.85  39 2.98   1 3.16  46 3.43

  16  0.390  0.371  0.546-  21 2.64  26 2.79  20 2.81  10 2.83  33 2.83  40 2.93  37 2.94  31 2.99
                             2 3.20
  17  0.619  0.602  0.458-  25 2.81  23 2.84  33 2.84  31 2.85   9 2.87  13 2.87   7 2.89  61 2.95
                            35 3.03   2 3.19   1 3.40  63 3.44
  18  0.632  0.151  0.621-  62 2.74  10 2.75  26 2.75   8 2.79  32 2.85  14 2.88   2 3.07  36 3.19
                            64 3.21
  19  0.279  0.834  0.451-  15 2.76  35 2.94  46 2.96  39 2.97  44 2.98  25 2.99  60 3.07  51 3.08
                            47 3.12  56 3.23  21 3.29
  20  0.279  0.354  0.632-  69 1.99  70 2.05  67 2.21  16 2.81  36 2.92  48 3.06  52 3.07  40 3.10
                            26 3.10  45 3.18  59 3.23
  21  0.280  0.597  0.537-  16 2.64  35 2.90  44 2.97  52 2.99  45 3.00  33 3.00  37 3.02  47 3.03
                            56 3.12  59 3.27  19 3.29
  22  0.283  0.077  0.361-  15 2.68  46 2.97  43 2.97  34 2.99  51 3.02  55 3.10  60 3.10
  23  0.736  0.630  0.541-  30 2.75   2 2.78  27 2.82  12 2.83  17 2.84   3 2.91  42 2.95  63 2.96
                            13 3.00
  24  0.740  0.115  0.366-  29 2.73  11 2.75  28 2.85   4 2.86   1 2.88  41 3.00
  25  0.496  0.836  0.458-  35 2.78  12 2.79  17 2.81  15 2.83   1 2.88   4 2.92  44 2.94  19 2.99
                            46 2.99  33 3.05
  26  0.504  0.371  0.630-  70 1.94  18 2.75  16 2.79   2 2.81  36 2.88   3 2.95  20 3.10  45 3.16

  27  0.837  0.657  0.630-  68 2.15  14 2.73   8 2.74  58 2.78  23 2.82   5 2.94  30 2.97  54 3.00
                             3 3.04  42 3.53
  28  0.847  0.110  0.455-  62 2.75   7 2.77   6 2.80  24 2.85  57 2.90  13 2.94  53 2.98  29 3.15
                             4 3.16  50 3.17  41 3.36
  29  0.852  0.349  0.376-  24 2.73   6 2.80   7 2.83  53 2.94  61 2.98  49 3.07  28 3.15  63 3.25

  30  0.853  0.863  0.550-   8 2.57  23 2.75   5 2.76  54 2.87  13 2.87  57 2.91  27 2.97  62 3.02
                            50 3.11
  31  0.522  0.339  0.461-   2 2.79   4 2.80  17 2.85   7 2.85  35 2.86  11 2.87  46 2.95  10 2.96
                            16 2.99  43 3.11
  32  0.533  0.889  0.622-  65 2.02  12 2.66   8 2.71   3 2.72  36 2.75  18 2.85  44 2.99  45 3.08

  33  0.498  0.623  0.540-   2 2.81  35 2.83  16 2.83  17 2.84  44 2.91   3 2.94  12 2.95  45 2.99
                            21 3.00  25 3.05
  34  0.499  0.102  0.365-  11 2.83   1 2.83  15 2.84   4 2.87  43 2.91  46 2.98  22 2.99
  35  0.400  0.580  0.451-  25 2.78  33 2.83   9 2.84  31 2.86  37 2.88  21 2.90  39 2.93  19 2.94
                            17 3.03  43 3.08
  36  0.403  0.107  0.628-  70 2.02  67 2.07  65 2.12  32 2.75  10 2.85  26 2.88  38 2.91  20 2.92
                            40 3.03  18 3.19  44 3.21
  37  0.255  0.366  0.464-  35 2.88  16 2.94  21 3.02  47 3.02  60 3.04  43 3.05  55 3.08  46 3.08
                            52 3.18  40 3.21  39 3.39
  38  0.241  0.912  0.625-  65 2.06  67 2.08  56 2.79  36 2.91  44 2.93  59 3.01  40 3.03  48 3.14
                            45 3.18  54 3.41
  39  0.252  0.614  0.376-  35 2.93  19 2.97  15 2.98  47 3.07  43 3.07  51 3.07  55 3.08  37 3.39
                            49 3.53
  40  0.252  0.138  0.549-  67 2.40  16 2.93  38 3.03  36 3.03  44 3.08  52 3.09  20 3.10  60 3.11
                            46 3.17  37 3.21  48 3.23  56 3.24  50 3.56
  41  0.865  0.859  0.370-   6 2.96  24 3.00  61 3.05  13 3.05  57 3.06  49 3.12   1 3.35  28 3.36
                            51 3.49  63 3.53
  42  0.866  0.384  0.545-  14 2.82   5 2.89  23 2.95  62 3.01   7 3.08  58 3.10  63 3.11  50 3.13
                            53 3.18   2 3.36  64 3.39  52 3.50  27 3.53
  43  0.381  0.352  0.373-  34 2.91  22 2.97  37 3.05  39 3.07  35 3.08   9 3.10  31 3.11  55 3.26
                            11 3.27  46 3.29
  44  0.379  0.873  0.546-  65 2.42  33 2.91  38 2.93  25 2.94  21 2.97  19 2.98  32 2.99  40 3.08
                            10 3.12  45 3.18  36 3.21  46 3.33  12 3.35  56 3.38
  45  0.383  0.651  0.631-  69 2.13  65 2.26  33 2.99  21 3.00  32 3.08  26 3.16  38 3.18  44 3.18
                            20 3.18   3 3.23  59 3.30
  46  0.384  0.104  0.456-  31 2.95  19 2.96  22 2.97  10 2.98  34 2.98  25 2.99  37 3.08  40 3.17
                             4 3.24  60 3.27  43 3.29  44 3.33  15 3.43
  47  0.117  0.611  0.465-  37 3.02  21 3.03   5 3.06  39 3.07  19 3.12  56 3.12  53 3.14  49 3.15
                            57 3.17  52 3.26  63 3.42  51 3.52  55 3.80
  48  0.099  0.167  0.637-  66 2.08  67 2.16  50 3.02  20 3.06  38 3.14  52 3.15  58 3.17  54 3.17
                            40 3.23  64 3.26
  49  0.996  0.593  0.368-  63 3.05  29 3.07  41 3.12  47 3.15  51 3.16  55 3.23  53 3.44  39 3.53
                            61 3.65  57 3.82
  50  0.994  0.115  0.543-  48 3.02  30 3.11  42 3.13  57 3.14  28 3.17  64 3.18  52 3.21  56 3.22
                            53 3.23  54 3.26  60 3.31  62 3.53  40 3.56
  51  0.119  0.872  0.375-  60 3.00  22 3.02   6 3.05  39 3.07  19 3.08  57 3.16  49 3.16  41 3.49
                            47 3.52
  52  0.118  0.396  0.556-  21 2.99   5 3.01  20 3.07  40 3.09  59 3.11  48 3.15  37 3.18  50 3.21
                            58 3.21  47 3.26  53 3.34  42 3.50
  53  1.000  0.331  0.453-   6 2.91  29 2.94  28 2.98  60 3.06  63 3.08  55 3.09  47 3.14  42 3.18
                            50 3.23  52 3.34  49 3.44
  54  0.994  0.873  0.626-  68 2.20  30 2.87  27 3.00  56 3.02   5 3.07  59 3.11  48 3.17  64 3.21
                            50 3.26  38 3.41
  55  0.145  0.332  0.368-   6 3.05  37 3.08  39 3.08  53 3.09  22 3.10  49 3.23  60 3.24  43 3.26
                            47 3.80
  56  0.134  0.846  0.542-  38 2.79   5 2.93  54 3.02  57 3.04  21 3.12  47 3.12  50 3.22  19 3.23
                            40 3.24  59 3.25  44 3.38  60 3.46
  57  0.979  0.876  0.465-  28 2.90  30 2.91  56 3.04  41 3.06  63 3.11  60 3.13  50 3.14  51 3.16
                            47 3.17  13 3.27   5 3.28   6 3.37  49 3.82
  58  0.967  0.437  0.643-  66 2.09  68 2.18  27 2.78  59 3.08  42 3.10  14 3.10  64 3.11  48 3.17
                             5 3.21  52 3.21
  59  0.144  0.630  0.633-  69 2.13  68 2.30  38 3.01  58 3.08  52 3.11  54 3.11   5 3.22  20 3.23
                            56 3.25  21 3.27  45 3.30
  60  0.147  0.092  0.451-  51 3.00  37 3.04  53 3.06  19 3.07   6 3.08  22 3.10  40 3.11  57 3.13
                            55 3.24  46 3.27  50 3.31  56 3.46
  61  0.731  0.606  0.367-   1 2.93  17 2.95   9 2.95  11 2.96  29 2.98  41 3.05  63 3.17  49 3.65

  62  0.739  0.129  0.538-  18 2.74  28 2.75  12 2.93   4 2.98   2 2.98   7 3.01  42 3.01  30 3.02
                            10 3.11   8 3.16  64 3.23  13 3.44  50 3.53
  63  0.869  0.592  0.458-  23 2.96  13 2.98   5 3.00  49 3.05   7 3.07  53 3.08  57 3.11  42 3.11
[...]

 VOLUME and BASIS-vectors are now :
  energy-cutoff  :      600.00
  volume of cell :     3643.60
      direct lattice vectors                 reciprocal lattice vectors
    13.771350861  0.000000000  0.000000000     0.072614518  0.000000000  0.000000000
     0.000000000  9.564481735  0.000000000     0.000000000  0.104553496  0.000000000
     0.000000000  0.000000000 27.662570434     0.000000000  0.000000000  0.036149931

  length of vectors
    13.771350861  9.564481735 27.662570434     0.072614518  0.104553496  0.036149931

 FORCES acting on ions
    electron-ion (+dipol)            ewald-force                    non-local-force                 convergence-correction
   -.471E+02 -.338E+02 0.400E+03   0.469E+02 0.336E+02 -.399E+03   0.981E-01 0.656E-01 -.777E+00   -.179E-01 -.714E-02 0.372E-02
   -.221E+02 -.373E+02 -.105E+03   0.222E+02 0.372E+02 0.105E+03   -.722E-01 0.134E+00 -.421E-01   -.824E-02 0.135E-02 0.620E-02
   0.252E+02 0.127E+02 -.367E+03   -.247E+02 -.125E+02 0.366E+03   -.419E+00 -.222E+00 0.105E+01   -.520E-02 0.316E-03 0.158E-02
   0.189E+01 0.373E+01 0.220E+03   -.192E+01 -.359E+01 -.220E+03   0.267E-02 -.224E+00 -.692E+00   -.191E-01 -.224E-02 0.131E-01
   -.548E+02 0.617E+01 -.582E+02   0.545E+02 -.582E+01 0.578E+02   0.281E+00 -.347E+00 0.392E+00   0.796E-02 0.704E-03 0.479E-02
   -.454E+02 0.456E+01 0.344E+03   0.447E+02 -.396E+01 -.342E+03   0.641E+00 -.101E+01 -.229E+01   0.226E-01 -.138E-02 0.151E-02
   -.370E+03 -.869E+01 0.561E+03   0.370E+03 0.943E+01 -.563E+03   0.196E+00 -.342E+00 0.936E+00   -.363E-01 0.302E-01 0.689E-01
   -.270E+03 0.144E+02 -.156E+04   0.269E+03 -.135E+02 0.156E+04   0.132E+01 -.972E+00 0.331E+01   -.790E-02 0.203E-02 0.190E-01
   0.982E+02 -.744E+01 0.171E+04   -.977E+02 0.634E+01 -.171E+04   -.548E+00 0.626E+00 -.434E+01   -.596E-01 0.832E-02 0.222E-01
   0.130E+03 0.381E+00 -.257E+03   -.130E+03 -.272E+00 0.259E+03   0.229E+00 -.109E+00 -.130E+01   -.465E-01 -.198E-02 0.258E-01
   -.544E+02 0.137E+03 0.178E+04   0.553E+02 -.137E+03 -.178E+04   -.505E+00 -.398E+00 -.278E+01   -.861E-01 0.373E-01 0.148E-01
   0.805E+02 0.125E+03 -.271E+03   -.796E+02 -.125E+03 0.271E+03   -.828E+00 0.261E+00 -.275E+00   -.431E-01 -.593E-02 0.308E-01
   -.415E+03 0.576E+01 0.842E+03   0.416E+03 -.688E+01 -.841E+03   -.787E+00 0.134E+01 -.147E+01   -.254E-01 -.251E-01 0.519E-01
   -.108E+03 -.216E+02 -.144E+04   0.109E+03 0.213E+02 0.143E+04   -.917E+00 0.306E+00 0.289E+01   -.352E-02 -.480E-02 0.154E-01
   0.293E+03 -.115E+03 0.162E+04   -.293E+03 0.115E+03 -.162E+04   0.270E+00 -.379E+00 -.417E+01   -.405E-01 0.159E-01 0.232E-01
   0.302E+03 -.152E+03 -.263E+03   -.302E+03 0.152E+03 0.264E+03   0.177E+00 0.828E-01 -.627E+00   -.284E-01 0.999E-02 0.492E-02
   -.137E+02 0.404E+01 0.220E+03   0.132E+02 -.396E+01 -.220E+03   0.497E+00 -.268E+00 0.967E-01   -.218E-01 0.192E-02 0.143E-01
   -.392E+02 -.326E+02 -.620E+03   0.390E+02 0.325E+02 0.617E+03   0.227E+00 0.172E+00 0.210E+01   -.739E-02 0.418E-04 0.460E-02
   0.171E+03 -.480E+01 0.217E+03   -.170E+03 0.466E+01 -.218E+03   -.148E+01 0.594E+00 0.482E+00   0.374E-02 0.810E-03 0.503E-02
   0.156E+03 -.323E+02 -.490E+03   -.155E+03 0.337E+02 0.488E+03   -.116E+01 -.145E+01 0.269E+01   0.860E-03 -.268E-03 -.530E-02
   0.125E+03 -.568E+02 -.529E+02   -.125E+03 0.568E+02 0.527E+02   -.241E+00 -.377E-01 0.182E+00   0.264E-02 -.146E-02 -.580E-03
   0.116E+03 -.556E+02 0.496E+03   -.115E+03 0.557E+02 -.493E+03   -.851E+00 -.242E+00 -.267E+01   0.207E-02 -.301E-03 0.814E-02
   -.916E+02 0.616E+02 -.113E+03   0.915E+02 -.613E+02 0.113E+03   0.249E-01 -.303E+00 0.290E+00   -.600E-02 -.862E-03 0.978E-02
   -.996E+02 0.595E+02 0.548E+03   0.989E+02 -.589E+02 -.545E+03   0.447E+00 -.525E+00 -.278E+01   -.107E-01 -.389E-02 -.134E-02
   0.766E+02 -.113E+02 0.198E+03   -.776E+02 0.107E+02 -.198E+03   0.889E+00 0.792E+00 -.458E+00   -.183E-01 -.232E-02 0.689E-02
   -.635E+02 -.774E+02 -.477E+03   0.631E+02 0.771E+02 0.475E+03   0.361E+00 0.278E+00 0.205E+01   -.910E-02 -.246E-02 0.149E-02
   -.476E+02 -.411E+01 -.430E+03   0.473E+02 0.381E+01 0.427E+03   0.369E+00 0.302E+00 0.277E+01   0.267E-02 -.627E-03 0.546E-02
   -.161E+03 0.619E+01 0.225E+03   0.161E+03 -.595E+01 -.226E+03   0.238E+00 -.371E+00 0.384E+00   0.112E-01 -.141E-02 0.226E-01
   -.149E+03 -.576E+01 0.506E+03   0.148E+03 0.567E+01 -.503E+03   0.716E+00 -.210E-01 -.251E+01   0.145E-01 0.133E-01 0.287E-02
   -.189E+03 -.419E+01 -.107E+03   0.188E+03 0.418E+01 0.107E+03   0.443E+00 0.181E-02 0.499E+00   0.543E-02 -.124E-02 0.115E-01
   0.811E+02 -.234E+00 0.205E+03   -.814E+02 0.661E+00 -.205E+03   0.661E-01 -.824E-01 -.138E+00   -.202E-01 0.246E-02 0.102E-01
   0.233E+02 0.482E+02 -.504E+03   -.227E+02 -.478E+02 0.502E+03   -.566E+00 -.453E+00 0.185E+01   -.668E-02 -.161E-02 0.107E-02
   0.469E+02 -.257E+01 -.120E+03   -.474E+02 0.276E+01 0.120E+03   0.505E+00 -.197E+00 0.525E+00   -.141E-01 -.719E-03 0.197E-02
   0.346E+02 -.144E+01 0.528E+03   -.352E+02 0.138E+01 -.525E+03   0.615E+00 0.323E-01 -.247E+01   -.297E-01 -.334E-02 0.558E-02
   0.126E+03 0.111E+02 0.195E+03   -.125E+03 -.114E+02 -.195E+03   -.766E+00 0.592E+00 -.405E+00   -.114E-01 0.756E-03 0.845E-02
   0.425E+01 0.429E+02 -.450E+03   -.260E+01 -.416E+02 0.447E+03   -.165E+01 -.128E+01 0.239E+01   -.404E-02 -.200E-02 -.333E-02
   0.123E+03 0.624E+01 0.223E+03   -.123E+03 -.604E+01 -.223E+03   0.402E-01 -.241E+00 -.605E+00   0.486E-02 0.390E-03 0.482E-02
   0.127E+03 0.650E+02 -.379E+03   -.128E+03 -.661E+02 0.377E+03   0.139E+01 0.105E+01 0.186E+01   0.481E-02 -.822E-03 -.305E-02
   0.125E+03 0.396E+02 0.455E+03   -.125E+03 -.393E+02 -.452E+03   0.113E+00 -.444E+00 -.270E+01   0.499E-02 0.662E-03 0.914E-02
   0.139E+03 0.379E+02 -.373E+02   -.139E+03 -.373E+02 0.371E+02   -.362E+00 -.575E+00 0.124E+00   0.400E-02 0.667E-04 0.729E-03
   -.978E+02 -.994E+00 0.514E+03   0.981E+02 0.984E+00 -.510E+03   -.469E+00 0.461E-01 -.305E+01   0.134E-01 -.104E-01 0.101E-02
   -.138E+03 0.382E+01 -.793E+02   0.137E+03 -.380E+01 0.798E+02   0.422E+00 -.159E-01 -.540E+00   0.435E-02 0.114E-02 0.131E-01
   0.129E+03 0.283E+02 0.481E+03   -.128E+03 -.285E+02 -.479E+03   -.210E+00 0.322E+00 -.251E+01   -.125E-01 -.330E-02 0.827E-02
   0.128E+03 0.385E+02 -.722E+02   -.128E+03 -.382E+02 0.714E+02   -.581E+00 -.243E+00 0.815E+00   -.602E-02 -.214E-02 0.169E-02
   -.447E+00 -.114E+02 -.431E+03   -.476E+00 0.109E+02 0.428E+03   0.930E+00 0.534E+00 0.314E+01   -.484E-02 0.321E-04 -.450E-02
   0.122E+03 -.643E+01 0.240E+03   -.122E+03 0.611E+01 -.241E+03   0.460E+00 0.304E+00 -.625E-01   -.120E-01 -.461E-03 0.261E-02
   0.358E+02 0.308E+01 0.181E+03   -.356E+02 -.298E+01 -.182E+03   -.139E+00 -.206E+00 0.148E+00   0.165E-01 -.553E-03 0.770E-02
   0.333E+02 0.298E+02 -.379E+03   -.345E+02 -.291E+02 0.377E+03   0.115E+01 -.724E+00 0.227E+01   0.629E-02 -.824E-03 -.640E-03
   -.404E+02 -.399E-01 0.468E+03   0.407E+02 0.426E+00 -.464E+03   -.808E-01 -.264E+00 -.283E+01   0.184E-01 0.193E-02 0.362E-02
   -.554E+02 -.225E+01 -.674E+02   0.553E+02 0.185E+01 0.677E+02   0.767E-01 0.398E+00 -.331E+00   0.129E-01 -.179E-04 0.112E-01
   0.515E+02 -.282E+01 0.448E+03   -.515E+02 0.216E+01 -.445E+03   0.361E-01 0.208E+00 -.306E+01   0.187E-01 0.190E-02 0.527E-02
   0.559E+02 -.520E+01 -.907E+02   -.555E+02 0.498E+01 0.914E+02   -.426E+00 0.224E+00 -.710E+00   0.118E-01 0.680E-03 0.226E-02
   -.689E+02 -.356E+01 0.212E+03   0.690E+02 0.375E+01 -.213E+03   0.108E+00 0.202E+00 0.248E+00   0.222E-01 0.336E-02 0.112E-01
   -.498E+02 -.471E+02 -.369E+03   0.503E+02 0.461E+02 0.366E+03   -.459E+00 0.952E+00 0.241E+01   0.771E-02 0.294E-03 0.282E-02
   0.403E+02 0.868E+00 0.463E+03   -.395E+02 -.719E+00 -.459E+03   -.848E+00 -.296E+00 -.327E+01   0.175E-01 -.266E-02 0.672E-02
   0.363E+02 0.136E+00 -.617E+02   -.358E+02 -.415E-01 0.621E+02   -.420E+00 -.947E-01 -.386E+00   0.116E-01 -.146E-02 0.460E-02
   -.933E+02 0.374E+00 0.186E+03   0.930E+02 -.595E+00 -.187E+03   0.571E+00 0.273E+00 0.879E-01   0.185E-01 -.453E-02 0.112E-01
   -.484E+02 -.419E+01 -.403E+03   0.475E+02 0.330E+01 0.401E+03   0.903E+00 0.892E+00 0.218E+01   0.518E-02 -.153E-02 0.215E-02
   0.335E+02 -.336E+02 -.364E+03   -.324E+02 0.337E+02 0.361E+03   -.108E+01 -.118E+00 0.249E+01   0.736E-02 0.828E-03 -.196E-02
   0.515E+02 -.591E+01 0.219E+03   -.508E+02 0.582E+01 -.220E+03   -.714E+00 0.433E+00 -.155E+00   0.183E-01 0.466E-03 0.361E-02
   -.140E+03 -.426E+02 0.544E+03   0.140E+03 0.420E+02 -.540E+03   0.849E+00 0.709E-01 -.326E+01   -.842E-02 0.315E-02 0.177E-02
   -.141E+03 -.432E+02 -.892E+02   0.141E+03 0.427E+02 0.899E+02   0.272E+00 0.505E+00 -.719E+00   -.572E-02 0.957E-03 0.167E-01
   -.153E+03 0.515E+01 0.211E+03   0.152E+03 -.516E+01 -.212E+03   0.685E+00 0.328E+00 0.181E-01   0.813E-02 0.204E-02 0.132E-01
   -.501E+02 0.370E+02 -.421E+03   0.509E+02 -.360E+02 0.418E+03   -.716E+00 -.101E+01 0.239E+01   0.279E-02 0.510E-03 0.443E-02
   0.722E+02 0.800E+02 -.714E+03   -.723E+02 -.809E+02 0.721E+03   0.169E+00 0.895E+00 -.727E+01   -.174E-01 0.628E-02 -.329E-02
   -.309E+02 0.315E+02 -.806E+03   0.304E+02 -.334E+02 0.820E+03   0.502E+00 0.190E+01 -.146E+02   0.344E-02 0.132E-02 -.269E-02
   0.162E+03 0.510E+02 -.659E+03   -.163E+03 -.531E+02 0.666E+03   0.543E+00 0.205E+01 -.727E+01   0.742E-02 -.303E-02 -.242E-02
   -.588E+02 -.327E+02 -.733E+03   0.589E+02 0.349E+02 0.742E+03   -.672E-01 -.223E+01 -.835E+01   0.852E-02 0.392E-02 -.120E-02
   0.730E+02 -.755E+02 -.815E+03   -.738E+02 0.795E+02 0.831E+03   0.754E+00 -.404E+01 -.164E+02   0.221E-02 0.586E-02 0.154E-02
   -.191E+02 -.171E+02 -.933E+03   0.223E+02 0.162E+02 0.952E+03   -.321E+01 0.899E+00 -.190E+02   -.111E-02 -.380E-03 -.461E-02
   0.230E+01 0.162E+01 0.836E+02   -.195E-12 0.639E-13 0.273E-11   -.199E+01 -.168E+01 -.842E+02   -.320E+00 0.581E-01 0.544E+00

 POSITION                                       TOTAL-FORCE (eV/Angst)
      8.57631      8.29685     10.39845        -0.065640     -0.159198      0.009213
      8.56456      3.73333     15.13284        -0.002686      0.000105      0.002446
      8.49636      6.04720     17.37808        -0.001381     -0.005193     -0.001751
      8.51616      0.79995     12.43874        -0.044547     -0.089874     -0.183579
     13.48064      6.10304     15.23773         0.000689      0.001151      0.002634
     13.49094      1.15316     10.44749        -0.030588     -0.408699     -0.063160
     10.03344      3.28428     12.67411        -0.045705      0.427923     -0.608548
     10.04388      8.56664     17.10041         0.003055     -0.003228     -0.002042
      7.12524      5.81577     10.15765        -0.116271     -0.468320      0.950237
      7.06393      1.29479     14.97864         0.002140     -0.002888     -0.002313
      8.51222      3.28036     10.20450         0.279269      0.014663      0.762780
      8.55201      8.36447     14.83171         0.000437      0.000864     -0.001886
     10.22263      8.06723     12.77991         0.145678      0.198862     -0.636458
     10.26366      3.85930     17.34341         0.000676     -0.004798      0.001589
      5.42664      8.10481     10.20639         0.262961      0.092763      0.915327
      5.36628      3.55144     15.11211         0.001191     -0.002709     -0.002251
      8.52843      5.75423     12.65640        -0.030150     -0.191006     -0.072666
      8.70451      1.44375     17.17509        -0.001033      0.001204      0.000153
      3.84829      7.97317     12.47259        -0.482159      0.452901     -0.514551
      3.84268      3.38837     17.46792        -0.000646     -0.003000     -0.002815
      3.86239      5.71190     14.86328        -0.000198     -0.000935     -0.001248
      3.90063      0.73891     10.00000         0.494443     -0.199570      0.347689
     10.13802      6.02502     14.97508         0.000074      0.000338      0.000882
     10.19112      1.10470     10.13736        -0.216317      0.019269      0.334320
      6.82945      7.99424     12.66670        -0.111116      0.226882     -0.462742
      6.93930      3.54495     17.41830         0.000917     -0.002508      0.003199
     11.52549      6.28090     17.42016        -0.002933     -0.002165      0.000473
     11.66772      1.05372     12.57547        -0.124144     -0.138514     -0.692535
     11.73919      3.33868     10.41199        -0.283311     -0.105679      0.588877
     11.74684      8.25075     15.20620         0.002279     -0.002709      0.000888
      7.18522      3.24644     12.75390        -0.184078      0.347344     -0.475936
      7.33715      8.50403     17.19853         0.000831     -0.004735      0.002242
      6.85491      5.95639     14.94114         0.000300     -0.000963     -0.001613
      6.87795      0.97560     10.08695        -0.046685     -0.030169      0.163924
      5.51084      5.55012     12.48419        -0.009888      0.325306     -0.226653
      5.54674      1.02383     17.38020         0.000639     -0.002358      0.000289
      3.51249      3.50019     12.83519        -0.025220     -0.046339     -0.223171
      3.31494      8.72067     17.29275         0.002261     -0.001672      0.000518
      3.46798      5.87237     10.40868         0.037226     -0.234022     -0.056228
      3.47080      1.32256     15.18788         0.000858     -0.002731     -0.001560
     11.91771      8.21633     10.24534        -0.179871      0.025617      0.667063
     11.92149      3.67506     15.07516        -0.002043     -0.001266     -0.000375
      5.24135      3.36543     10.32679         0.166186      0.084634      0.171344
      5.21371      8.34911     15.09925         0.000542     -0.000192     -0.000773
      5.27439      6.22764     17.46358         0.002642     -0.002660     -0.001833
      5.28930      0.99064     12.60849         0.123962     -0.016575     -0.283243
      1.60538      5.84491     12.85122         0.088025     -0.110026     -0.476897
      1.36886      1.59284     17.62134         0.000177     -0.001300      0.000470
     13.72038      5.67134     10.18293         0.175545      0.123951      0.619427
     13.69438      1.10096     15.01617         0.000582     -0.000626      0.000053
      1.63456      8.33987     10.36453         0.024190     -0.449854      0.160293
      1.62998      3.79213     15.38297         0.000957     -0.004205     -0.000503
     13.76831      3.16119     12.53308         0.162268      0.396761     -0.242438
     13.69079      8.35218     17.31440         0.001336      0.001842      0.001397
      1.99440      3.17314     10.17666        -0.115507     -0.149976      0.681199
      1.84926      8.08759     15.00482        -0.001302     -0.002145      0.000636
     13.48051      8.37930     12.86886         0.241273      0.047194     -0.347692
     13.31146      4.17829     17.79499         0.001766     -0.000603      0.000103
      1.98018      6.03038     17.51333         0.001380     -0.002433      0.000132
      2.02729      0.87737     12.46815         0.017527      0.342519     -0.430377
     10.07171      5.79402     10.14663         0.133809     -0.580173      0.142707
     10.17100      1.23704     14.87342        -0.000672     -0.000462      0.000221
     11.97051      5.66181     12.67660        -0.260653      0.322449     -0.517930
     11.88050      1.41821     17.60356        -0.000213     -0.001980      0.001610
      5.34569      8.48317     17.51244         0.006669     -0.003754     -0.001340
     13.49399      2.29381     18.68715         0.002111     -0.001988      0.000884
      3.49545      1.20571     17.58539         0.001712     -0.002014     -0.002532
     13.55383      6.32099     18.13822         0.003193     -0.002686      0.003907
      3.70078      5.13716     18.40757        -0.000023     -0.000208     -0.002775
      5.51443      2.73261     18.45122        -0.006799     -0.005439      0.003287
    total drift:                               -0.008619      0.004933     -0.050701

  FREE ENERGIE OF THE ION-ELECTRON SYSTEM (eV)
  free  energy   TOTEN  =      -568.03170123 eV

  energy  without entropy=     -568.03516534  energy(sigma->0) =     -568.03256726

 d Force = 0.1255317E-04[ 0.109E-04, 0.142E-04]  d Energy =-0.2542727E-04 0.380E-04
 d Force =-0.5475629E-01[-0.548E-01,-0.548E-01]  d Ewald  =-0.5475629E-01 0.437E-09

 Conjugate gradient step on ions:
 trial-energy change:    0.000025  1 .order   -0.000013   -0.000014   -0.000011
  (g-gl).g = 0.212E-04      g.g   = 0.161E-04  gl.gl    = 0.155E-04
 g(Force)  = 0.161E-04   g(Stress)= 0.000E+00 ortho     =-0.321E-06
 gamma     =   1.36124
 trial     =   0.91007
 opt step  =   3.64029  (harmonic =   3.82974) maximal distance =0.00086715
 next E    =  -568.031757   (d E  =  -0.00003)

 reached required accuracy - stopping structural energy minimisation