 vasp.5.4.1 05Feb16 (build Mar 19 2020 08:54:17) complex

 executed on           IFC91_ompi date 2021.10.24  15:44:32

 INCAR:
 POTCAR:    PAW_PBE Al 04Jan2001
 POTCAR:    PAW_PBE Nb_sv 25May2007
 POTCAR:    PAW_PBE Ta 17Jan2003
 POTCAR:    PAW_PBE Ti 08Apr2002
 POTCAR:   PAW_PBE Zr 08Apr2002
 POTCAR:    PAW_PBE O 08Apr2002

 POTCAR:    PAW_PBE Al 04Jan2001
   VRHFIN =Al: s2p1

   TITEL  = PAW_PBE Al 04Jan2001
   POMASS =   26.981; ZVAL   =    3.000    mass and valenz
   ENMAX  =  240.300; ENMIN  =  180.225 eV

 POTCAR:    PAW_PBE Nb_sv 25May2007
   VRHFIN =Nb: 4p5s4d

   TITEL  = PAW_PBE Nb_sv 25May2007
   POMASS =   92.910; ZVAL   =   13.000    mass and valenz
   ENMAX  =  293.235; ENMIN  =  219.927 eV

 POTCAR:    PAW_PBE Ta 17Jan2003
   VRHFIN =Ta:  6s5d

   TITEL  = PAW_PBE Ta 17Jan2003
   POMASS =  180.948; ZVAL   =    5.000    mass and valenz
   ENMAX  =  223.667; ENMIN  =  167.750 eV

 POTCAR:    PAW_PBE Ti 08Apr2002
   VRHFIN =Ti: d3 s1

   TITEL  = PAW_PBE Ti 08Apr2002
   POMASS =   47.880; ZVAL   =    4.000    mass and valenz
   ENMAX  =  178.330; ENMIN  =  133.747 eV

 POTCAR:   PAW_PBE Zr 08Apr2002
   VRHFIN =Zr: 5s4d5p

   TITEL  = PAW_PBE Zr 08Apr2002
   POMASS =   91.224; ZVAL   =    4.000    mass and valenz
   ENMAX  =  154.632; ENMIN  =  115.974 eV
   QCUT   =   -3.371; QGAM   =    6.742    optimization parameters

   Description
     l     E      TYP  RCUT    TYP  RCUT
     2   .000     23  3.000
     2   .000     23  3.000
     0   .000     23  3.000
     0  2.000     23  3.000
     1  -.400     23  3.000
     3   .000      7   .000

 POTCAR:    PAW_PBE O 08Apr2002
   VRHFIN =O: s2p4

   TITEL  = PAW_PBE O 08Apr2002
   POMASS =   16.000; ZVAL   =    6.000    mass and valenz
   ENMAX  =  400.000; ENMIN  =  300.000 eV

 WARNING: PSMAXN for non-local potential too small
          PSMAXN should be >   12.5490833729506       NTYP=           5
  PAW_PBE Al 04Jan2001                  :
  PAW_PBE Nb_sv 25May2007               :
  PAW_PBE Ta 17Jan2003                  :
  PAW_PBE Ti 08Apr2002                  :
 PAW_PBE Zr 08Apr2002                   :
  PAW_PBE O 08Apr2002                   :

 POSCAR: Al Nb Ta Ti Zr
  positions in direct lattice
  velocities in cartesian coordinates
 exchange correlation table for  LEXCH =        8
   RHO(1)=    0.500       N(1)  =     2000
   RHO(2)=  100.500       N(2)  =     4000

 ion  position               nearest neighbor table
   1  0.623  0.867  0.376-  34 2.83  25 2.88  24 2.88   9 2.88  13 2.90   4 2.91  61 2.93  15 3.16
                            41 3.35  17 3.40
   2  0.623  0.393  0.547-  14 2.79  31 2.79  23 2.80  33 2.80  26 2.80   7 2.88  10 2.90  62 2.97
                            18 3.06  17 3.17  16 3.19   3 3.22  42 3.34
   3  0.618  0.638  0.627-  32 2.76  14 2.83  23 2.90  33 2.91   8 2.91  26 2.99  27 2.99  45 3.19
                             2 3.22
   4  0.618  0.084  0.450-  31 2.80  24 2.86  34 2.87  13 2.88   1 2.91  10 2.91  25 2.92   7 2.92
                            62 2.98  12 3.13  28 3.16  46 3.24
   5  0.975  0.641  0.551-  30 2.75  42 2.90  56 2.91  27 2.93  63 2.98  52 3.01  54 3.09  47 3.09
                            59 3.11  58 3.23  23 3.26  57 3.27
   6  0.980  0.121  0.378-  29 2.80  28 2.80  53 2.91  41 2.96  51 3.05  55 3.05  60 3.08  57 3.37

   7  0.729  0.343  0.458-  28 2.77  29 2.83  31 2.85   2 2.88  17 2.89  11 2.90   4 2.92  62 3.01
                            63 3.07  42 3.09
   8  0.725  0.900  0.620-  30 2.59  32 2.70  12 2.71  27 2.76  18 2.82   3 2.91  64 3.08  62 3.16

   9  0.517  0.608  0.367-  35 2.84  15 2.85  17 2.87   1 2.88  11 2.89  61 2.95  43 3.10
  10  0.515  0.133  0.540-  18 2.75  36 2.79  16 2.81  12 2.87   2 2.90   4 2.91  31 2.95  46 2.96
                            62 3.06  44 3.15
  11  0.618  0.343  0.369-  24 2.75  34 2.83  31 2.87   9 2.89   7 2.90  61 2.96  43 3.27
  12  0.621  0.874  0.537-  13 2.68   8 2.71  32 2.71  25 2.80  23 2.83  10 2.87  62 2.93  33 2.94
                             4 3.13  44 3.39
  13  0.742  0.843  0.462-  12 2.68  17 2.87   4 2.88   1 2.90  30 2.92  28 2.94  23 2.97  63 2.98
                            41 3.05  57 3.27  62 3.46
  14  0.744  0.405  0.627-  27 2.73   2 2.79  42 2.81   3 2.83  18 2.86  64 2.96  58 3.09
  15  0.394  0.847  0.369-  22 2.68  19 2.76  25 2.83  34 2.84   9 2.85  39 2.98   1 3.16  46 3.43

  16  0.392  0.367  0.543-  21 2.64  20 2.66  26 2.71  10 2.81  33 2.85  37 2.89  31 2.90  40 3.02
                             2 3.19
  17  0.619  0.602  0.458-  25 2.81  33 2.84  31 2.85  23 2.85   9 2.87  13 2.87   7 2.89  61 2.95
                            35 3.03   2 3.17   1 3.40  63 3.44
  18  0.627  0.159  0.622-  10 2.75  26 2.76  62 2.78   8 2.82  14 2.86  32 2.86   2 3.06  36 3.18
                            64 3.27
  19  0.279  0.834  0.451-  15 2.76  35 2.94  46 2.96  39 2.97  25 2.99  44 2.99  60 3.07  51 3.08
                            47 3.12  56 3.25
  20  0.280  0.370  0.621-  67 2.27  16 2.66  36 2.92  26 3.00  52 3.00  21 3.03  40 3.06  45 3.07
                            59 3.12  48 3.15
  21  0.279  0.590  0.543-  16 2.64  45 2.89  52 2.98  59 2.99  44 3.00  35 3.03  33 3.03  20 3.03
                            37 3.07  47 3.12  56 3.14
  22  0.283  0.077  0.361-  15 2.68  46 2.97  43 2.97  34 2.99  51 3.02  55 3.10  60 3.10
  23  0.739  0.633  0.541-  30 2.76   2 2.80  27 2.80  12 2.83  17 2.85   3 2.90  63 2.93  42 2.96
                            13 2.97   5 3.26
  24  0.740  0.115  0.366-  29 2.73  11 2.75  28 2.85   4 2.86   1 2.88  41 3.00
  25  0.496  0.836  0.458-  35 2.78  12 2.80  17 2.81  15 2.83   1 2.88   4 2.92  44 2.98  19 2.99
                            46 2.99  33 3.05
  26  0.497  0.378  0.626-  16 2.71  18 2.76   2 2.80  36 2.85   3 2.99  20 3.00  45 3.02
  27  0.834  0.660  0.630-  68 2.13  14 2.73   8 2.76  58 2.80  23 2.80   5 2.93  30 2.96   3 2.99
                            54 3.04
  28  0.847  0.110  0.455-   7 2.77  62 2.77   6 2.80  24 2.85  57 2.90  13 2.94  53 2.98  29 3.15
                             4 3.16  50 3.19  41 3.36
  29  0.852  0.349  0.376-  24 2.73   6 2.80   7 2.83  53 2.94  61 2.98  49 3.07  28 3.15  63 3.25

  30  0.853  0.869  0.552-   8 2.59   5 2.75  23 2.76  54 2.91  13 2.92  27 2.96  57 2.96  62 2.99
                            50 3.05
  31  0.522  0.339  0.461-   2 2.79   4 2.80  17 2.85   7 2.85  35 2.86  11 2.87  16 2.90  10 2.95
                            46 2.95  43 3.11
  32  0.529  0.896  0.623-  65 2.01   8 2.70  12 2.71   3 2.76  36 2.78  18 2.86  44 2.99  45 3.07

  33  0.498  0.623  0.540-   2 2.80  35 2.83  17 2.84  16 2.85   3 2.91  44 2.92  12 2.94  45 2.94
                            21 3.03  25 3.05
  34  0.499  0.102  0.365-  11 2.83   1 2.83  15 2.84   4 2.87  43 2.91  46 2.98  22 2.99
  35  0.400  0.580  0.451-  25 2.78  33 2.83   9 2.84  31 2.86  37 2.88  39 2.93  19 2.94  21 3.03
                            17 3.03  43 3.08
  36  0.398  0.117  0.622-  67 2.03  65 2.18  32 2.78  10 2.79  26 2.85  38 2.91  20 2.92  40 2.92
                            44 3.15  18 3.18
  37  0.255  0.366  0.464-  35 2.88  16 2.89  47 3.02  60 3.04  43 3.05  21 3.07  55 3.08  46 3.08
                            52 3.16  40 3.24  39 3.39
  38  0.239  0.918  0.628-  65 2.03  67 2.15  56 2.86  36 2.91  44 2.97  40 3.01  59 3.06  48 3.13
                            45 3.26  54 3.34
  39  0.252  0.614  0.376-  35 2.93  19 2.97  15 2.98  47 3.07  43 3.07  51 3.07  55 3.08  37 3.39
                            49 3.53
  40  0.245  0.133  0.549-  67 2.44  36 2.92  38 3.01  16 3.02  60 3.06  20 3.06  44 3.08  52 3.11
                            56 3.19  46 3.22  48 3.22  37 3.24  50 3.46
  41  0.865  0.859  0.370-   6 2.96  24 3.00  61 3.05  13 3.05  57 3.06  49 3.12   1 3.35  28 3.36
                            51 3.49  63 3.53
  42  0.865  0.383  0.546-  14 2.81   5 2.90  23 2.96  62 3.00   7 3.09  58 3.11  63 3.14  50 3.14
                            53 3.20   2 3.34  64 3.35  52 3.41
  43  0.381  0.352  0.373-  34 2.91  22 2.97  37 3.05  39 3.07  35 3.08   9 3.10  31 3.11  55 3.26
                            11 3.27  46 3.29
  44  0.376  0.872  0.547-  65 2.44  33 2.92  38 2.97  25 2.98  19 2.99  32 2.99  21 3.00  40 3.08
                            45 3.13  36 3.15  10 3.15  56 3.36  46 3.36  12 3.39
  45  0.386  0.651  0.630-  65 2.32  21 2.89  33 2.94  26 3.02  32 3.07  20 3.07  44 3.13   3 3.19
                            38 3.26  59 3.35
  46  0.384  0.104  0.456-  31 2.95  19 2.96  10 2.96  22 2.97  34 2.98  25 2.99  37 3.08  40 3.22
                             4 3.24  60 3.27  43 3.29  44 3.36  15 3.43
  47  0.117  0.611  0.465-  37 3.02  39 3.07   5 3.09  56 3.11  19 3.12  21 3.12  53 3.14  49 3.15
                            57 3.17  52 3.20  63 3.42  51 3.52  55 3.80
  48  0.100  0.174  0.639-  66 2.08  67 2.17  50 3.06  38 3.13  20 3.15  58 3.15  52 3.19  54 3.22
                            40 3.22  64 3.27
  49  0.996  0.593  0.368-  63 3.05  29 3.07  41 3.12  47 3.15  51 3.16  55 3.23  53 3.44  39 3.53
                            61 3.65  57 3.82
  50  0.994  0.113  0.544-  30 3.05  48 3.06  64 3.13  42 3.14  57 3.15  52 3.16  28 3.19  56 3.22
                            53 3.27  54 3.27  60 3.34  40 3.46  62 3.55
  51  0.119  0.872  0.375-  60 3.00  22 3.02   6 3.05  39 3.07  19 3.08  57 3.16  49 3.16  41 3.49
                            47 3.52
  52  0.112  0.395  0.553-  21 2.98  20 3.00   5 3.01  59 3.05  40 3.11  50 3.16  37 3.16  48 3.19
                            47 3.20  53 3.22  58 3.28  42 3.41
  53  1.000  0.331  0.453-   6 2.91  29 2.94  28 2.98  60 3.06  63 3.08  55 3.09  47 3.14  42 3.20
                            52 3.22  50 3.27  49 3.44
  54  0.998  0.872  0.628-  68 2.17  30 2.91  56 3.01  27 3.04  59 3.06   5 3.09  48 3.22  64 3.24
                            50 3.27  38 3.34
  55  0.145  0.332  0.368-   6 3.05  37 3.08  39 3.08  53 3.09  22 3.10  49 3.23  60 3.24  43 3.26
                            47 3.80
  56  0.133  0.842  0.543-  38 2.86   5 2.91  54 3.01  57 3.04  59 3.06  47 3.11  21 3.14  40 3.19
                            50 3.22  19 3.25  44 3.36  60 3.51
  57  0.979  0.876  0.465-  28 2.90  30 2.96  56 3.04  41 3.06  63 3.11  60 3.13  50 3.15  51 3.16
                            47 3.17   5 3.27  13 3.27   6 3.37  49 3.82
  58  0.965  0.440  0.645-  66 2.09  68 2.16  27 2.80  14 3.09  59 3.10  42 3.11  64 3.13  48 3.15
                             5 3.23  52 3.28
  59  0.143  0.630  0.626-  68 2.42  21 2.99  52 3.05  38 3.06  54 3.06  56 3.06  58 3.10   5 3.11
                            20 3.12  45 3.35
  60  0.147  0.092  0.451-  51 3.00  37 3.04  53 3.06  40 3.06  19 3.07   6 3.08  22 3.10  57 3.13
                            55 3.24  46 3.27  50 3.34  56 3.51
  61  0.731  0.606  0.367-   1 2.93  17 2.95   9 2.95  11 2.96  29 2.98  41 3.05  63 3.17  49 3.65

  62  0.737  0.130  0.538-  28 2.77  18 2.78  12 2.93   2 2.97   4 2.98  30 2.99  42 3.00   7 3.01
                            10 3.06   8 3.16  64 3.21  13 3.46  50 3.55
  63  0.869  0.592  0.458-  23 2.93  13 2.98   5 2.98  49 3.05   7 3.07  53 3.08  57 3.11  42 3.14
                            61 3.17  29 3.25  47 3.42  17 3.44  41 3.53
[...]
  augment   461.44357   462.32494   457.62435    -1.51379     0.18521    -0.12361
  Kinetic  4585.96024  4572.30737  4609.27610   -10.06105     6.09136    -1.05918
  Fock        0.00000     0.00000     0.00000     0.00000     0.00000     0.00000
  Total     -35.06035   -31.62544   -16.16924    -4.58236     5.52035    -1.10309
  in kB     -15.41687   -13.90646    -7.11000    -2.01497     2.42743    -0.48505

 VOLUME and BASIS-vectors are now :
  energy-cutoff  :      600.00
  volume of cell :     3643.60
      direct lattice vectors                 reciprocal lattice vectors
    13.771350861  0.000000000  0.000000000     0.072614518  0.000000000  0.000000000
     0.000000000  9.564481735  0.000000000     0.000000000  0.104553496  0.000000000
     0.000000000  0.000000000 27.662570434     0.000000000  0.000000000  0.036149931

  length of vectors
    13.771350861  9.564481735 27.662570434     0.072614518  0.104553496  0.036149931

 FORCES acting on ions
    electron-ion (+dipol)            ewald-force                    non-local-force                 convergence-correction
   -.464E+02 -.336E+02 0.390E+03   0.461E+02 0.333E+02 -.389E+03   0.107E+00 0.899E-01 -.812E+00   0.373E-01 0.260E-01 -.225E-01
   -.127E+02 -.360E+02 -.123E+03   0.128E+02 0.360E+02 0.123E+03   -.777E-01 0.743E-01 0.463E-01   0.192E-01 -.229E-02 -.343E-01
   0.414E+02 0.233E+02 -.371E+03   -.408E+02 -.228E+02 0.370E+03   -.548E+00 -.464E+00 0.978E+00   0.107E-01 -.413E-02 -.940E-02
   0.231E+01 0.471E+01 0.209E+03   -.247E+01 -.456E+01 -.209E+03   0.945E-01 -.285E+00 -.858E+00   0.431E-01 0.543E-02 -.622E-01
   -.624E+02 0.700E+01 -.722E+02   0.622E+02 -.663E+01 0.718E+02   0.192E+00 -.377E+00 0.415E+00   -.176E-01 0.608E-03 -.275E-01
   -.460E+02 0.460E+01 0.335E+03   0.454E+02 -.404E+01 -.332E+03   0.661E+00 -.990E+00 -.227E+01   -.600E-01 0.487E-02 -.168E-01
   -.367E+03 -.972E+01 0.509E+03   0.367E+03 0.106E+02 -.510E+03   0.171E+00 -.355E+00 0.900E+00   0.778E-01 -.851E-01 -.269E+00
   -.241E+03 0.842E+01 -.161E+04   0.239E+03 -.747E+01 0.161E+04   0.130E+01 -.954E+00 0.348E+01   0.523E-01 0.405E-02 -.781E-01
   0.102E+03 -.822E+01 0.167E+04   -.102E+03 0.719E+01 -.166E+04   -.540E+00 0.594E+00 -.434E+01   0.134E+00 -.127E-01 -.999E-01
   0.166E+03 -.168E+02 -.341E+03   -.166E+03 0.170E+02 0.343E+03   0.124E+00 -.124E+00 -.132E+01   0.100E+00 0.318E-02 -.140E+00
   -.521E+02 0.136E+03 0.174E+04   0.526E+02 -.136E+03 -.174E+04   -.514E+00 -.397E+00 -.281E+01   0.203E+00 -.140E+00 -.991E-01
   0.100E+03 0.136E+03 -.337E+03   -.994E+02 -.136E+03 0.338E+03   -.849E+00 0.106E+00 -.302E+00   0.950E-01 0.937E-02 -.180E+00
   -.410E+03 0.541E+01 0.786E+03   0.411E+03 -.656E+01 -.785E+03   -.792E+00 0.135E+01 -.150E+01   0.479E-01 0.765E-01 -.226E+00
   -.685E+02 -.175E+02 -.146E+04   0.697E+02 0.172E+02 0.146E+04   -.123E+01 0.334E+00 0.300E+01   0.243E-01 -.126E-01 -.663E-01
   0.295E+03 -.114E+03 0.158E+04   -.295E+03 0.114E+03 -.157E+04   0.238E+00 -.363E+00 -.416E+01   0.123E+00 -.333E-02 -.103E+00
   0.325E+03 -.150E+03 -.376E+03   -.325E+03 0.150E+03 0.377E+03   0.165E+00 0.102E+00 -.780E+00   0.686E-01 -.705E-02 -.722E-01
   -.974E+01 0.305E+01 0.197E+03   0.924E+01 -.300E+01 -.197E+03   0.543E+00 -.248E+00 0.605E-01   0.442E-01 -.443E-02 -.694E-01
   -.211E+01 -.428E+02 -.645E+03   0.184E+01 0.424E+02 0.642E+03   0.246E+00 0.443E+00 0.233E+01   0.224E-01 0.709E-02 -.220E-01
   0.170E+03 -.198E+01 0.188E+03   -.169E+03 0.190E+01 -.189E+03   -.144E+01 0.431E+00 0.653E+00   0.234E-02 0.845E-03 -.468E-01
   0.101E+03 -.843E+02 -.568E+03   -.996E+02 0.861E+02 0.564E+03   -.156E+01 -.176E+01 0.358E+01   -.629E-02 -.197E-02 0.169E-02
   0.119E+03 -.562E+02 -.110E+03   -.118E+03 0.559E+02 0.110E+03   -.109E+00 0.266E+00 -.247E+00   -.270E-02 0.232E-02 -.226E-01
   0.116E+03 -.554E+02 0.483E+03   -.115E+03 0.554E+02 -.480E+03   -.832E+00 -.188E+00 -.269E+01   0.116E-01 -.609E-03 -.312E-01
   -.908E+02 0.621E+02 -.127E+03   0.906E+02 -.618E+02 0.127E+03   0.197E+00 -.322E+00 0.323E+00   0.989E-02 -.140E-02 -.500E-01
   -.994E+02 0.596E+02 0.536E+03   0.987E+02 -.591E+02 -.533E+03   0.485E+00 -.524E+00 -.276E+01   0.164E-01 0.131E-01 -.133E-01
   0.801E+02 -.977E+01 0.178E+03   -.812E+02 0.921E+01 -.177E+03   0.953E+00 0.787E+00 -.482E+00   0.392E-01 0.786E-02 -.511E-01
   0.183E+02 -.499E+02 -.532E+03   -.194E+02 0.496E+02 0.529E+03   0.112E+01 0.294E+00 0.239E+01   0.158E-01 0.223E-02 -.635E-02
   -.480E+02 -.396E+01 -.436E+03   0.477E+02 0.368E+01 0.433E+03   0.310E+00 0.280E+00 0.269E+01   -.816E-03 -.878E-03 -.164E-01
   -.162E+03 0.653E+01 0.209E+03   0.161E+03 -.630E+01 -.210E+03   0.326E+00 -.404E+00 0.298E+00   -.341E-01 0.514E-02 -.873E-01
   -.149E+03 -.577E+01 0.494E+03   0.148E+03 0.571E+01 -.491E+03   0.677E+00 -.236E-01 -.254E+01   -.439E-01 -.389E-01 -.265E-01
   -.188E+03 -.588E+01 -.129E+03   0.187E+03 0.591E+01 0.129E+03   0.458E+00 -.435E-01 0.383E+00   -.753E-02 0.660E-02 -.499E-01
   0.822E+02 -.194E+01 0.187E+03   -.825E+02 0.240E+01 -.188E+03   0.605E-01 -.665E-01 -.196E-01   0.490E-01 -.832E-02 -.577E-01
   0.421E+02 0.424E+02 -.520E+03   -.415E+02 -.419E+02 0.518E+03   -.641E+00 -.465E+00 0.216E+01   0.151E-01 -.182E-02 -.908E-02
   0.609E+02 0.147E+01 -.148E+03   -.614E+02 -.133E+01 0.148E+03   0.531E+00 -.133E+00 0.525E+00   0.290E-01 -.358E-03 -.356E-01
   0.354E+02 -.122E+01 0.515E+03   -.362E+02 0.110E+01 -.512E+03   0.606E+00 0.605E-01 -.248E+01   0.713E-01 0.683E-02 -.284E-01
   0.130E+03 0.897E+01 0.172E+03   -.129E+03 -.917E+01 -.172E+03   -.685E+00 0.609E+00 -.330E+00   0.302E-01 0.419E-02 -.465E-01
   0.204E+02 -.221E+02 -.477E+03   -.189E+02 0.236E+02 0.475E+03   -.152E+01 -.152E+01 0.234E+01   0.544E-02 0.431E-02 -.274E-02
   0.123E+03 0.370E+01 0.199E+03   -.123E+03 -.357E+01 -.199E+03   0.921E-02 -.156E+00 -.485E+00   -.700E-02 -.265E-02 -.386E-01
   0.114E+03 0.667E+02 -.410E+03   -.115E+03 -.678E+02 0.408E+03   0.122E+01 0.113E+01 0.206E+01   -.827E-02 0.245E-02 0.162E-02
   0.125E+03 0.394E+02 0.440E+03   -.125E+03 -.391E+02 -.437E+03   0.125E+00 -.483E+00 -.281E+01   -.351E-02 0.971E-03 -.375E-01
   0.126E+03 0.303E+02 -.727E+02   -.126E+03 -.299E+02 0.724E+02   -.221E+00 -.378E+00 0.321E+00   -.933E-02 -.111E-02 -.228E-01
   -.981E+02 -.101E+01 0.502E+03   0.985E+02 0.934E+00 -.498E+03   -.495E+00 0.766E-01 -.307E+01   -.396E-01 0.308E-01 -.187E-01
   -.139E+03 0.388E+01 -.964E+02   0.139E+03 -.391E+01 0.969E+02   0.363E+00 0.334E-01 -.463E+00   -.123E-01 -.697E-02 -.499E-01
   0.129E+03 0.278E+02 0.467E+03   -.129E+03 -.281E+02 -.465E+03   -.204E+00 0.326E+00 -.251E+01   0.380E-01 -.762E-03 -.387E-01
   0.132E+03 0.413E+02 -.105E+03   -.131E+03 -.411E+02 0.104E+03   -.615E+00 -.183E+00 0.820E+00   0.119E-01 0.167E-02 -.321E-01
   0.522E+02 0.341E+02 -.477E+03   -.532E+02 -.351E+02 0.473E+03   0.918E+00 0.950E+00 0.365E+01   0.756E-02 -.303E-02 0.218E-02
   0.125E+03 -.482E+01 0.219E+03   -.125E+03 0.452E+01 -.219E+03   0.303E+00 0.131E+00 -.359E-01   0.329E-01 -.391E-02 -.429E-01
   0.300E+02 0.242E+01 0.160E+03   -.297E+02 -.240E+01 -.161E+03   -.374E-01 -.108E+00 0.305E+00   -.356E-01 0.348E-02 -.415E-01
   0.423E+01 0.168E+02 -.396E+03   -.548E+01 -.165E+02 0.394E+03   0.127E+01 -.318E+00 0.227E+01   -.147E-01 0.227E-02 -.123E-02
   -.414E+02 -.156E+00 0.455E+03   0.417E+02 0.542E+00 -.452E+03   -.705E-01 -.262E+00 -.283E+01   -.469E-01 -.675E-02 -.241E-01
   -.623E+02 -.266E+01 -.883E+02   0.622E+02 0.240E+01 0.886E+02   0.613E-01 0.258E+00 -.268E+00   -.311E-01 0.129E-03 -.436E-01
   0.503E+02 -.257E+01 0.434E+03   -.503E+02 0.191E+01 -.431E+03   0.150E-01 0.199E+00 -.303E+01   -.395E-01 -.249E-02 -.275E-01
   0.342E+02 -.624E+01 -.112E+03   -.339E+02 0.605E+01 0.113E+03   -.324E+00 0.196E+00 -.641E+00   -.273E-01 -.301E-02 -.234E-01
   -.710E+02 -.336E+01 0.196E+03   0.711E+02 0.359E+01 -.196E+03   0.603E-01 0.156E+00 0.843E-01   -.559E-01 -.953E-02 -.538E-01
   -.605E+02 -.465E+02 -.383E+03   0.610E+02 0.454E+02 0.381E+03   -.506E+00 0.106E+01 0.245E+01   -.157E-01 0.129E-02 -.114E-01
   0.393E+02 0.641E+00 0.450E+03   -.386E+02 -.505E+00 -.446E+03   -.817E+00 -.297E+00 -.321E+01   -.375E-01 0.406E-02 -.315E-01
   0.244E+02 0.191E+01 -.869E+02   -.239E+02 -.186E+01 0.875E+02   -.511E+00 -.493E-01 -.505E+00   -.253E-01 0.224E-02 -.311E-01
   -.957E+02 0.614E+00 0.169E+03   0.954E+02 -.866E+00 -.169E+03   0.474E+00 0.314E+00 0.785E-01   -.449E-01 0.111E-01 -.513E-01
   -.694E+02 -.558E+01 -.414E+03   0.685E+02 0.475E+01 0.412E+03   0.901E+00 0.833E+00 0.216E+01   -.957E-02 -.208E-02 -.655E-02
   -.262E+02 -.474E+00 -.385E+03   0.272E+02 0.986E+00 0.382E+03   -.977E+00 -.508E+00 0.279E+01   -.159E-01 -.310E-02 -.169E-02
   0.490E+02 -.544E+01 0.201E+03   -.482E+02 0.536E+01 -.201E+03   -.660E+00 0.390E+00 -.129E+00   -.376E-01 -.264E-02 -.348E-01
   -.140E+03 -.427E+02 0.532E+03   0.139E+03 0.421E+02 -.528E+03   0.858E+00 0.331E-01 -.325E+01   0.161E-01 -.106E-01 -.195E-01
   -.138E+03 -.438E+02 -.108E+03   0.138E+03 0.433E+02 0.109E+03   0.285E+00 0.521E+00 -.758E+00   0.157E-01 0.105E-02 -.646E-01
   -.154E+03 0.487E+01 0.195E+03   0.153E+03 -.492E+01 -.196E+03   0.680E+00 0.394E+00 0.705E-01   -.211E-01 -.631E-02 -.588E-01
   -.542E+02 0.351E+02 -.422E+03   0.549E+02 -.341E+02 0.420E+03   -.707E+00 -.103E+01 0.235E+01   -.296E-02 0.879E-03 -.159E-01
   0.867E+02 0.789E+02 -.745E+03   -.869E+02 -.799E+02 0.753E+03   0.221E+00 0.101E+01 -.788E+01   0.574E-02 0.267E-03 0.951E-02
   -.543E+02 0.253E+02 -.805E+03   0.532E+02 -.275E+02 0.820E+03   0.113E+01 0.226E+01 -.147E+02   -.152E-01 0.714E-03 0.108E-01
   0.105E+03 -.836E+01 -.711E+03   -.105E+03 0.798E+01 0.720E+03   0.312E+00 0.369E+00 -.818E+01   -.143E-01 0.115E-01 0.113E-01
   -.961E+02 -.242E+02 -.742E+03   0.977E+02 0.260E+02 0.751E+03   -.161E+01 -.188E+01 -.855E+01   -.145E-01 -.345E-03 -.198E-02
   -.479E+00 -.654E+00 0.510E+02   0.696E-12 -.156E-12 0.421E-11   -.311E+00 0.807E+00 -.480E+02   0.768E+00 -.126E+00 -.297E+01

 POSITION                                       TOTAL-FORCE (eV/Angst)
      8.57631      8.29685     10.39845        -0.094792     -0.163310     -0.005470
      8.57694      3.76094     15.11964        -0.003131      0.000117      0.005810
      8.50606      6.09980     17.33028         0.004206      0.001549     -0.004614
      8.51616      0.79995     12.43874        -0.015471     -0.132696     -0.253615
     13.42680      6.12971     15.23717         0.001785     -0.002172      0.000160
     13.49094      1.15316     10.44749        -0.026519     -0.419813     -0.064903
     10.03344      3.28428     12.67411         0.002627      0.461675     -0.603511
      9.97856      8.60473     17.13800        -0.000207      0.001432     -0.001610
      7.12524      5.81577     10.15765        -0.157071     -0.456749      0.895526
      7.09504      1.26910     14.93937        -0.001190     -0.000247      0.004686
      8.51222      3.28036     10.20450         0.267168      0.055989      0.740147
      8.54859      8.36222     14.85101        -0.001743      0.000144      0.000689
     10.22263      8.06723     12.77991         0.212763      0.276356     -0.601977
     10.24998      3.87654     17.34492         0.002110     -0.000990     -0.003137
      5.42664      8.10481     10.20639         0.276597      0.097232      0.935199
      5.39970      3.51157     15.02955        -0.001690      0.002684      0.005756
      8.52843      5.75423     12.65640         0.085315     -0.208377     -0.056064
      8.63811      1.51899     17.20681        -0.002970      0.000830     -0.002494
      3.84829      7.97317     12.47259        -0.417859      0.352851     -0.443254
      3.85301      3.53731     17.18976         0.003983      0.000249     -0.000253
      3.84439      5.64649     15.01040         0.000432     -0.001086     -0.002879
      3.90063      0.73891     10.00000         0.517705     -0.149540      0.325977
     10.17543      6.05142     14.96360         0.002742     -0.001202     -0.001237
     10.19112      1.10470     10.13736        -0.208321      0.015129      0.357965
      6.82945      7.99424     12.66670        -0.130905      0.242039     -0.356850
      6.84412      3.61737     17.31613        -0.004936     -0.001305     -0.000755
     11.48730      6.31245     17.42816        -0.000735     -0.001270      0.000765
     11.66772      1.05372     12.57547        -0.106471     -0.167800     -0.680768
     11.73919      3.33868     10.41199        -0.286827     -0.122578      0.600130
     11.74258      8.30951     15.26425         0.000941     -0.001130      0.001064
      7.18522      3.24644     12.75390        -0.167464      0.387039     -0.498621
      7.28098      8.56597     17.23758        -0.002141      0.001029     -0.000661
      6.85781      5.96354     14.94101        -0.001048      0.001417      0.000699
      6.87795      0.97560     10.08695        -0.077578     -0.048849      0.157122
      5.51084      5.55012     12.48419         0.005438      0.408705     -0.166309
      5.48274      1.11983     17.20676         0.002556     -0.000060     -0.001918
      3.51249      3.50019     12.83519        -0.100825     -0.029219     -0.403468
      3.29053      8.77808     17.37519         0.000924     -0.000050     -0.001429
      3.46798      5.87237     10.40868         0.034518     -0.237591     -0.076353
      3.37773      1.27039     15.18270         0.000846     -0.001863     -0.000171
     11.91771      8.21633     10.24534        -0.211251      0.029832      0.655859
     11.91273      3.66348     15.09407        -0.000219     -0.000164      0.000331
      5.24135      3.36543     10.32679         0.177719      0.085861      0.183696
      5.17452      8.33814     15.12713        -0.000299      0.000743      0.001902
      5.31422      6.22245     17.43410        -0.000317     -0.001899     -0.003647
      5.28930      0.99064     12.60849        -0.002332     -0.175257     -0.254842
      1.60538      5.84491     12.85122         0.186905     -0.088864     -0.417954
      1.37095      1.66494     17.67548         0.000307     -0.001017     -0.003385
     13.72038      5.67134     10.18293         0.213777      0.116851      0.623473
     13.69243      1.07626     15.04619         0.001348     -0.000294     -0.000627
      1.63456      8.33987     10.36453        -0.012495     -0.466130      0.193337
      1.53988      3.78161     15.29320         0.000726     -0.002113     -0.000603
     13.76831      3.16119     12.53308         0.129770      0.375618     -0.343977
     13.74991      8.33984     17.37446         0.000279     -0.002291      0.000251
      1.99440      3.17314     10.17666        -0.093900     -0.156367      0.718504
      1.83207      8.05250     15.02655         0.000417      0.000519      0.002044
     13.48051      8.37930     12.86886         0.067779      0.073383     -0.352239
     13.28426      4.20677     17.83296        -0.000550      0.001270     -0.001871
      1.97382      6.02074     17.31270         0.002162      0.000094     -0.003494
      2.02729      0.87737     12.46815         0.031703      0.301517     -0.458970
     10.07171      5.79402     10.14663         0.141801     -0.588991      0.171112
     10.15053      1.24691     14.88688        -0.001598      0.000178      0.001293
     11.97051      5.66181     12.67660        -0.245236      0.341675     -0.506488
     11.88178      1.41938     17.58127         0.000310     -0.000802     -0.000528
      5.30061      8.54195     17.55342        -0.000172      0.000186      0.000051
     13.46797      2.32165     18.71127         0.000683     -0.000946     -0.001847
      3.51099      1.33552     17.62193        -0.000286      0.000012     -0.000200
     13.49327      6.33396     18.15397         0.000209     -0.001171     -0.000554
    total drift:                               -0.021575      0.026233      0.025444

  FREE ENERGIE OF THE ION-ELECTRON SYSTEM (eV)
  free  energy   TOTEN  =      -547.30111817 eV

  energy  without entropy=     -547.30215967  energy(sigma->0) =     -547.30137855

 d Force = 0.4622692E-05[ 0.394E-05, 0.531E-05]  d Energy = 0.2839527E-04-0.238E-04
 d Force =-0.8965787E-01[-0.897E-01,-0.897E-01]  d Ewald  =-0.8965787E-01 0.189E-09

 Conjugate gradient step on ions:
 trial-energy change:   -0.000028  1 .order   -0.000005   -0.000005   -0.000004
  (g-gl).g = 0.155E-04      g.g   = 0.121E-04  gl.gl    = 0.808E-05
 g(Force)  = 0.121E-04   g(Stress)= 0.000E+00 ortho     =-0.175E-06
 gamma     =   1.91363
 trial     =   0.45195
 opt step  =   1.75392  (harmonic =   1.75392) maximal distance =0.00061656
 next E    =  -547.301100   (d E  =  -0.00001)

 reached required accuracy - stopping structural energy minimisation