 vasp.5.4.1 05Feb16 (build Mar 19 2020 08:54:17) complex

 executed on           IFC91_ompi date 2021.10.24  12:57:22

 INCAR:
 POTCAR:    PAW_PBE Al 04Jan2001
 POTCAR:    PAW_PBE Nb_sv 25May2007
 POTCAR:    PAW_PBE Ta 17Jan2003
 POTCAR:    PAW_PBE Ti 08Apr2002
 POTCAR:   PAW_PBE Zr 08Apr2002
 POTCAR:    PAW_PBE O 08Apr2002

 POTCAR:    PAW_PBE Al 04Jan2001
   VRHFIN =Al: s2p1

   TITEL  = PAW_PBE Al 04Jan2001
   POMASS =   26.981; ZVAL   =    3.000    mass and valenz
   ENMAX  =  240.300; ENMIN  =  180.225 eV

 POTCAR:    PAW_PBE Nb_sv 25May2007
   VRHFIN =Nb: 4p5s4d

   TITEL  = PAW_PBE Nb_sv 25May2007
   POMASS =   92.910; ZVAL   =   13.000    mass and valenz
   ENMAX  =  293.235; ENMIN  =  219.927 eV

 POTCAR:    PAW_PBE Ta 17Jan2003
   VRHFIN =Ta:  6s5d

   TITEL  = PAW_PBE Ta 17Jan2003
   POMASS =  180.948; ZVAL   =    5.000    mass and valenz
   ENMAX  =  223.667; ENMIN  =  167.750 eV

 POTCAR:    PAW_PBE Ti 08Apr2002
   VRHFIN =Ti: d3 s1

   TITEL  = PAW_PBE Ti 08Apr2002
   POMASS =   47.880; ZVAL   =    4.000    mass and valenz
   ENMAX  =  178.330; ENMIN  =  133.747 eV

 POTCAR:   PAW_PBE Zr 08Apr2002
   VRHFIN =Zr: 5s4d5p

   TITEL  = PAW_PBE Zr 08Apr2002
   POMASS =   91.224; ZVAL   =    4.000    mass and valenz
   ENMAX  =  154.632; ENMIN  =  115.974 eV
   QCUT   =   -3.371; QGAM   =    6.742    optimization parameters

   Description
     l     E      TYP  RCUT    TYP  RCUT
     2   .000     23  3.000
     2   .000     23  3.000
     0   .000     23  3.000
     0  2.000     23  3.000
     1  -.400     23  3.000
     3   .000      7   .000

 POTCAR:    PAW_PBE O 08Apr2002
   VRHFIN =O: s2p4

   TITEL  = PAW_PBE O 08Apr2002
   POMASS =   16.000; ZVAL   =    6.000    mass and valenz
   ENMAX  =  400.000; ENMIN  =  300.000 eV

 WARNING: PSMAXN for non-local potential too small
          PSMAXN should be >   12.5490833729506       NTYP=           5
  PAW_PBE Al 04Jan2001                  :
  PAW_PBE Nb_sv 25May2007               :
  PAW_PBE Ta 17Jan2003                  :
  PAW_PBE Ti 08Apr2002                  :
 PAW_PBE Zr 08Apr2002                   :
  PAW_PBE O 08Apr2002                   :

 POSCAR: Al Nb Ta Ti Zr
  positions in direct lattice
  velocities in cartesian coordinates
 exchange correlation table for  LEXCH =        8
   RHO(1)=    0.500       N(1)  =     2000
   RHO(2)=  100.500       N(2)  =     4000

 ion  position               nearest neighbor table
   1  0.623  0.867  0.376-  34 2.83  25 2.88  24 2.88   9 2.88  13 2.90   4 2.91  61 2.93  15 3.16
                            41 3.35  17 3.40
   2  0.622  0.390  0.546-  31 2.78  14 2.78  23 2.79  26 2.79  33 2.81  10 2.88   7 2.88  62 2.98
                            18 3.03  16 3.14  17 3.18   3 3.31  42 3.33
   3  0.616  0.645  0.627-  32 2.78  14 2.87  23 2.88  33 2.90   8 2.91  27 2.95  26 3.01  45 3.14
                             2 3.31
   4  0.618  0.084  0.450-  31 2.80  24 2.86  34 2.87  13 2.88   1 2.91  25 2.92   7 2.92  10 2.93
                            62 2.99  12 3.15  28 3.16  46 3.24
   5  0.976  0.640  0.554-  30 2.76  27 2.82  42 2.92  56 2.96  54 2.99  59 3.02  52 3.02  58 3.07
                            63 3.08  47 3.16  57 3.34
   6  0.980  0.121  0.378-  29 2.80  28 2.80  53 2.91  41 2.96  51 3.05  55 3.05  60 3.08  57 3.37

   7  0.729  0.343  0.458-  28 2.77  29 2.83  31 2.85   2 2.88  17 2.89  11 2.90   4 2.92  62 3.02
                            63 3.07  42 3.07
   8  0.726  0.904  0.621-  30 2.62  12 2.73  27 2.74  32 2.75  18 2.80   3 2.91  64 3.11  62 3.14

   9  0.517  0.608  0.367-  35 2.84  15 2.85  17 2.87   1 2.88  11 2.89  61 2.95  43 3.10
  10  0.514  0.132  0.541-  18 2.77  36 2.78  16 2.80  12 2.86   2 2.88   4 2.93  46 2.96  31 2.96
                            62 3.09  44 3.12
  11  0.618  0.343  0.369-  24 2.75  34 2.83  31 2.87   9 2.89   7 2.90  61 2.96  43 3.27
  12  0.621  0.875  0.538-  13 2.70   8 2.73  32 2.73  23 2.80  25 2.82  10 2.86  33 2.91  62 2.93
                             4 3.15  44 3.36
  13  0.742  0.843  0.462-  12 2.70  17 2.87   4 2.88  30 2.88   1 2.90  28 2.94  63 2.98  23 2.98
                            41 3.05  57 3.27  62 3.46
  14  0.743  0.407  0.627-  27 2.71   2 2.78  42 2.81  18 2.82   3 2.87  64 2.99  58 3.13
  15  0.394  0.847  0.369-  22 2.68  19 2.76  25 2.83  34 2.84   9 2.85  39 2.98   1 3.16  46 3.43

  16  0.395  0.369  0.542-  20 2.64  21 2.65  26 2.74  10 2.80  33 2.85  31 2.86  37 2.90  40 3.07
                             2 3.14
  17  0.619  0.602  0.458-  25 2.81  23 2.81  33 2.82  31 2.85   9 2.87  13 2.87   7 2.89  61 2.95
                            35 3.03   2 3.18   1 3.40  63 3.44
  18  0.629  0.162  0.622-  26 2.77  10 2.77  62 2.78   8 2.80  14 2.82  32 2.84   2 3.03  64 3.31
                            36 3.31
  19  0.279  0.834  0.451-  15 2.76  35 2.94  46 2.96  39 2.97  25 2.99  44 3.00  60 3.07  51 3.08
                            47 3.12  56 3.17
  20  0.285  0.381  0.621-  16 2.64  36 2.84  26 2.94  45 2.98  21 2.99  52 3.04  59 3.05  40 3.14
                            48 3.15
  21  0.280  0.592  0.541-  16 2.65  59 2.89  45 2.93  35 2.98  52 2.99  20 2.99  44 3.00  33 3.04
                            37 3.06  47 3.10  56 3.14
  22  0.283  0.077  0.361-  15 2.68  46 2.97  43 2.97  34 2.99  51 3.02  55 3.10  60 3.10
  23  0.734  0.632  0.541-  27 2.70  30 2.77   2 2.79  12 2.80  17 2.81   3 2.88  63 2.97  13 2.98
                            42 2.98
  24  0.740  0.115  0.366-  29 2.73  11 2.75  28 2.85   4 2.86   1 2.88  41 3.00
  25  0.496  0.836  0.458-  35 2.78  17 2.81  12 2.82  15 2.83   1 2.88   4 2.92  44 2.98  19 2.99
                            46 2.99  33 3.04
  26  0.498  0.381  0.627-  16 2.74  18 2.77   2 2.79  36 2.87  20 2.94   3 3.01  45 3.02
  27  0.831  0.660  0.625-  23 2.70  14 2.71   8 2.74   5 2.82  58 2.83  30 2.87   3 2.95  54 3.13
                            42 3.49
  28  0.847  0.110  0.455-  62 2.76   7 2.77   6 2.80  24 2.85  57 2.90  13 2.94  53 2.98  29 3.15
                             4 3.16  50 3.24  41 3.36
  29  0.852  0.349  0.376-  24 2.73   6 2.80   7 2.83  53 2.94  61 2.98  49 3.07  28 3.15  63 3.25

  30  0.851  0.866  0.551-   8 2.62   5 2.76  23 2.77  27 2.87  13 2.88  54 2.90  57 2.95  62 2.98
                            50 3.10
  31  0.522  0.339  0.461-   2 2.78   4 2.80  17 2.85   7 2.85  35 2.86  16 2.86  11 2.87  46 2.95
                            10 2.96  43 3.11
  32  0.526  0.905  0.624-  65 2.00  12 2.73   8 2.75   3 2.78  36 2.82  18 2.84  44 2.97  45 3.07

  33  0.500  0.626  0.540-   2 2.81  17 2.82  35 2.85  16 2.85   3 2.90  12 2.91  44 2.91  45 2.93
                            25 3.04  21 3.04
  34  0.499  0.102  0.365-  11 2.83   1 2.83  15 2.84   4 2.87  43 2.91  46 2.98  22 2.99
  35  0.400  0.580  0.451-  25 2.78   9 2.84  33 2.85  31 2.86  37 2.88  39 2.93  19 2.94  21 2.98
                            17 3.03  43 3.08
  36  0.390  0.125  0.620-  65 2.20  10 2.78  40 2.82  32 2.82  20 2.84  26 2.87  38 2.95  44 3.15
                            18 3.31
  37  0.255  0.366  0.464-  35 2.88  16 2.90  47 3.02  60 3.04  43 3.05  21 3.06  55 3.08  46 3.08
                            52 3.11  40 3.23  39 3.39
  38  0.237  0.911  0.626-  65 2.02  56 2.83  59 2.91  44 2.94  36 2.95  40 3.02  48 3.12  45 3.23
                            54 3.26
  39  0.252  0.614  0.376-  35 2.93  19 2.97  15 2.98  47 3.07  43 3.07  51 3.07  55 3.08  37 3.39
                            49 3.53
  40  0.244  0.134  0.548-  36 2.82  38 3.02  60 3.04  16 3.07  52 3.07  44 3.10  48 3.14  20 3.14
                            56 3.16  46 3.22  37 3.23  50 3.42
  41  0.865  0.859  0.370-   6 2.96  24 3.00  61 3.05  13 3.05  57 3.06  49 3.12   1 3.35  28 3.36
                            51 3.49  63 3.53
  42  0.864  0.383  0.545-  14 2.81   5 2.92  62 2.98  23 2.98   7 3.07  58 3.09  63 3.13  50 3.15
                            53 3.20  64 3.33   2 3.33  52 3.45  27 3.49
  43  0.381  0.352  0.373-  34 2.91  22 2.97  37 3.05  39 3.07  35 3.08   9 3.10  31 3.11  55 3.26
                            11 3.27  46 3.29
  44  0.377  0.873  0.547-  65 2.44  33 2.91  38 2.94  32 2.97  25 2.98  21 3.00  19 3.00  40 3.10
                            45 3.11  10 3.12  36 3.15  46 3.35  12 3.36  56 3.36
  45  0.388  0.654  0.630-  65 2.36  21 2.93  33 2.93  20 2.98  26 3.02  32 3.07  44 3.11   3 3.14
                            38 3.23  59 3.30
  46  0.384  0.104  0.456-  31 2.95  19 2.96  10 2.96  22 2.97  34 2.98  25 2.99  37 3.08  40 3.22
                             4 3.24  60 3.27  43 3.29  44 3.35  15 3.43
  47  0.117  0.611  0.465-  37 3.02  56 3.06  39 3.07  21 3.10  19 3.12  53 3.14  49 3.15   5 3.16
                            57 3.17  52 3.17  63 3.42  51 3.52  55 3.80
  48  0.108  0.177  0.638-  66 2.08  50 3.06  38 3.12  40 3.14  20 3.15  52 3.18  58 3.22  54 3.26
                            64 3.32
  49  0.996  0.593  0.368-  63 3.05  29 3.07  41 3.12  47 3.15  51 3.16  55 3.23  53 3.44  39 3.53
                            61 3.65  57 3.82
  50  0.996  0.114  0.546-  48 3.06  64 3.07  30 3.10  52 3.14  54 3.15  42 3.15  57 3.19  56 3.21
                            28 3.24  53 3.29  60 3.36  40 3.42  62 3.55
  51  0.119  0.872  0.375-  60 3.00  22 3.02   6 3.05  39 3.07  19 3.08  57 3.16  49 3.16  41 3.49
                            47 3.52
  52  0.114  0.394  0.551-  21 2.99   5 3.02  59 3.04  20 3.04  40 3.07  37 3.11  50 3.14  47 3.17
                            48 3.18  53 3.20  58 3.27  42 3.45
  53  1.000  0.331  0.453-   6 2.91  29 2.94  28 2.98  60 3.06  63 3.08  55 3.09  47 3.14  52 3.20
                            42 3.20  50 3.29  49 3.44
  54  0.001  0.876  0.624-  30 2.90  56 2.99   5 2.99  59 3.09  27 3.13  50 3.15  64 3.23  38 3.26
                            48 3.26
  55  0.145  0.332  0.368-   6 3.05  37 3.08  39 3.08  53 3.09  22 3.10  49 3.23  60 3.24  43 3.26
                            47 3.80
  56  0.135  0.845  0.540-  38 2.83   5 2.96  54 2.99  57 2.99  59 3.03  47 3.06  21 3.14  40 3.16
                            19 3.17  50 3.21  44 3.36  60 3.42
  57  0.979  0.876  0.465-  28 2.90  30 2.95  56 2.99  41 3.06  63 3.11  60 3.13  51 3.16  47 3.17
                            50 3.19  13 3.27   5 3.34   6 3.37  49 3.82
  58  0.966  0.444  0.642-  66 2.08  27 2.83   5 3.07  42 3.09  64 3.11  14 3.13  59 3.16  48 3.22
                            52 3.27
  59  0.150  0.634  0.621-  21 2.89  38 2.91   5 3.02  56 3.03  52 3.04  20 3.05  54 3.09  58 3.16
                            45 3.30
  60  0.147  0.092  0.451-  51 3.00  37 3.04  40 3.04  53 3.06  19 3.07   6 3.08  22 3.10  57 3.13
                            55 3.24  46 3.27  50 3.36  56 3.42
  61  0.731  0.606  0.367-   1 2.93  17 2.95   9 2.95  11 2.96  29 2.98  41 3.05  63 3.17  49 3.65

  62  0.739  0.129  0.538-  28 2.76  18 2.78  12 2.93  30 2.98   2 2.98  42 2.98   4 2.99   7 3.02
                            10 3.09   8 3.14  64 3.23  13 3.46  50 3.55
  63  0.869  0.592  0.458-  23 2.97  13 2.98  49 3.05   7 3.07   5 3.08  53 3.08  57 3.11  42 3.13
                            61 3.17  29 3.25  47 3.42  17 3.44  41 3.53
[...]
         0         1         2         3         4         5         6         7         8         9
 total charge-density along one line

------------------------ aborting loop because EDIFF is reached ----------------------------------------

  FORCE on cell =-STRESS in cart. coord.  units (eV):
  Direction    XX          YY          ZZ          XY          YZ          ZX
  Alpha Z   529.78975   529.78975   529.78975
  Ewald   79446.16995 84415.21568-90788.18107  -796.39889   -11.62793   637.36362
  Hartree 83982.16681 88754.35807-80273.46103  -620.00555   -26.67528   614.49331
  E(xc)   -1501.59260 -1503.15918 -1492.60856    -0.11378    -0.83585     0.32823
  Local  ************************167321.17095  1413.21499    40.60310 -1253.47918
  n-local   -60.42537   -66.03116   -97.69727     8.84117    -1.70747     2.47380
  augment   448.36492   449.33828   445.07684    -1.22703     0.41640    -0.06957
  Kinetic  4324.68734  4316.48638  4340.04061    -7.63231     5.27649    -2.33320
  Fock        0.00000     0.00000     0.00000     0.00000     0.00000     0.00000
  Total     -34.14093   -30.85224   -15.86978    -3.32141     5.44945    -1.22298
  in kB     -15.01258   -13.56646    -6.97832    -1.46050     2.39625    -0.53777

 VOLUME and BASIS-vectors are now :
  energy-cutoff  :      600.00
  volume of cell :     3643.60
      direct lattice vectors                 reciprocal lattice vectors
    13.771350861  0.000000000  0.000000000     0.072614518  0.000000000  0.000000000
     0.000000000  9.564481735  0.000000000     0.000000000  0.104553496  0.000000000
     0.000000000  0.000000000 27.662570434     0.000000000  0.000000000  0.036149931

  length of vectors
    13.771350861  9.564481735 27.662570434     0.072614518  0.104553496  0.036149931

 FORCES acting on ions
    electron-ion (+dipol)            ewald-force                    non-local-force                 convergence-correction
   -.465E+02 -.337E+02 0.380E+03   0.463E+02 0.335E+02 -.379E+03   0.125E+00 0.106E+00 -.797E+00   -.294E-02 -.249E-02 0.381E-02
   -.145E+02 -.359E+02 -.133E+03   0.145E+02 0.358E+02 0.133E+03   0.134E-01 0.186E+00 -.743E-01   -.517E-03 -.274E-02 0.141E-02
   0.366E+02 0.251E+02 -.379E+03   -.361E+02 -.245E+02 0.378E+03   -.448E+00 -.540E+00 0.110E+01   -.372E-03 -.144E-02 0.200E-02
   0.266E+01 0.529E+01 0.196E+03   -.276E+01 -.514E+01 -.195E+03   0.792E-01 -.278E+00 -.682E+00   -.244E-02 -.670E-03 0.910E-02
   -.655E+02 0.475E+01 -.115E+03   0.652E+02 -.430E+01 0.117E+03   0.292E+00 -.450E+00 -.168E+01   0.653E-02 -.270E-03 -.631E-03
   -.467E+02 0.461E+01 0.323E+03   0.460E+02 -.405E+01 -.321E+03   0.656E+00 -.989E+00 -.226E+01   0.931E-02 0.105E-03 0.584E-02
   -.375E+03 -.928E+01 0.454E+03   0.375E+03 0.101E+02 -.456E+03   0.114E+00 -.351E+00 0.883E+00   0.149E-01 -.396E-02 0.371E-01
   -.286E+03 0.230E+02 -.165E+04   0.285E+03 -.219E+02 0.164E+04   0.156E+01 -.111E+01 0.380E+01   0.191E-01 0.224E-01 -.260E-02
   0.103E+03 -.894E+01 0.163E+04   -.103E+03 0.782E+01 -.162E+04   -.556E+00 0.626E+00 -.430E+01   -.238E-01 0.537E-02 0.159E-01
   0.199E+03 -.125E+02 -.412E+03   -.199E+03 0.125E+02 0.414E+03   0.212E+00 -.417E-01 -.132E+01   -.187E-01 0.769E-03 0.377E-02
   -.525E+02 0.137E+03 0.170E+04   0.533E+02 -.136E+03 -.170E+04   -.516E+00 -.387E+00 -.279E+01   -.158E-01 0.156E-01 0.184E-01
   0.929E+02 0.134E+03 -.402E+03   -.921E+02 -.134E+03 0.403E+03   -.789E+00 0.459E-01 -.273E+00   -.338E-02 0.172E-01 0.111E-02
   -.415E+03 0.587E+01 0.724E+03   0.416E+03 -.693E+01 -.723E+03   -.769E+00 0.134E+01 -.160E+01   0.168E-01 0.815E-02 0.247E-01
   -.123E+03 -.415E+02 -.149E+04   0.124E+03 0.411E+02 0.149E+04   -.121E+01 0.404E+00 0.322E+01   0.333E-02 -.678E-02 0.463E-02
   0.298E+03 -.115E+03 0.153E+04   -.298E+03 0.115E+03 -.153E+04   0.263E+00 -.378E+00 -.412E+01   -.388E-01 0.111E-01 0.171E-01
   0.366E+03 -.122E+03 -.447E+03   -.366E+03 0.122E+03 0.447E+03   0.667E-01 0.265E+00 -.809E+00   -.360E-01 0.185E-02 -.993E-02
   -.114E+02 0.165E+01 0.178E+03   0.109E+02 -.162E+01 -.178E+03   0.568E+00 -.236E+00 0.645E-01   -.431E-02 0.533E-04 0.684E-02
   0.309E+01 -.406E+02 -.650E+03   -.316E+01 0.403E+02 0.648E+03   0.691E-01 0.306E+00 0.241E+01   0.481E-02 0.223E-05 -.104E-02
   0.172E+03 -.428E+01 0.164E+03   -.171E+03 0.418E+01 -.165E+03   -.135E+01 0.424E+00 0.492E+00   -.774E-02 0.132E-02 0.467E-02
   0.129E+03 -.172E+02 -.592E+03   -.128E+03 0.175E+02 0.589E+03   -.131E+01 -.306E+00 0.335E+01   -.739E-02 0.102E-02 -.633E-02
   0.127E+03 -.532E+02 -.128E+03   -.127E+03 0.530E+02 0.128E+03   -.189E+00 0.223E+00 0.138E+00   -.593E-02 -.330E-02 -.171E-02
   0.117E+03 -.555E+02 0.469E+03   -.115E+03 0.555E+02 -.466E+03   -.862E+00 -.195E+00 -.270E+01   -.765E-02 0.352E-03 0.627E-02
   -.978E+02 0.616E+02 -.147E+03   0.976E+02 -.613E+02 0.147E+03   0.178E+00 -.296E+00 0.515E+00   0.315E-02 -.967E-03 0.172E-02
   -.100E+03 0.598E+02 0.523E+03   0.994E+02 -.592E+02 -.520E+03   0.458E+00 -.496E+00 -.275E+01   0.517E-02 -.182E-02 0.533E-02
   0.808E+02 -.114E+02 0.160E+03   -.819E+02 0.109E+02 -.160E+03   0.934E+00 0.761E+00 -.517E+00   -.794E-02 0.571E-03 0.557E-02
   0.339E+02 -.407E+02 -.538E+03   -.351E+02 0.405E+02 0.536E+03   0.114E+01 0.210E+00 0.246E+01   -.338E-02 0.167E-03 -.857E-03
   -.126E+03 -.258E+01 -.453E+03   0.125E+03 0.242E+01 0.451E+03   0.100E+00 0.158E+00 0.226E+01   0.500E-02 0.801E-03 0.308E-02
   -.165E+03 0.699E+01 0.190E+03   0.165E+03 -.676E+01 -.191E+03   0.320E+00 -.442E+00 0.352E+00   0.107E-01 -.331E-03 0.128E-01
   -.150E+03 -.586E+01 0.479E+03   0.149E+03 0.580E+01 -.476E+03   0.664E+00 -.622E-01 -.259E+01   0.128E-01 0.389E-02 0.699E-02
   -.201E+03 0.211E+01 -.153E+03   0.200E+03 -.210E+01 0.152E+03   0.636E+00 -.185E-01 0.399E+00   0.717E-02 0.401E-02 0.136E-02
   0.830E+02 0.537E+00 0.172E+03   -.832E+02 -.124E+00 -.172E+03   0.145E-01 -.651E-01 -.673E-01   -.830E-02 -.266E-03 0.826E-02
   0.495E+02 0.342E+02 -.530E+03   -.488E+02 -.339E+02 0.528E+03   -.741E+00 -.300E+00 0.230E+01   -.249E-02 0.607E-03 0.609E-03
   0.655E+02 0.243E+01 -.165E+03   -.659E+02 -.230E+01 0.164E+03   0.389E+00 -.129E+00 0.630E+00   -.773E-02 -.588E-03 -.652E-03
   0.361E+02 -.103E+01 0.502E+03   -.368E+02 0.960E+00 -.499E+03   0.589E+00 0.249E-01 -.249E+01   -.136E-01 -.213E-02 0.443E-02
   0.132E+03 0.826E+01 0.156E+03   -.131E+03 -.853E+01 -.155E+03   -.683E+00 0.672E+00 -.328E+00   -.107E-01 -.134E-02 0.710E-02
   0.107E+03 -.266E+02 -.491E+03   -.106E+03 0.279E+02 0.488E+03   -.692E+00 -.130E+01 0.210E+01   -.510E-02 0.161E-02 -.178E-02
   0.126E+03 0.678E+01 0.175E+03   -.126E+03 -.644E+01 -.175E+03   0.771E-02 -.308E+00 -.451E+00   -.517E-02 -.398E-03 0.478E-02
   0.121E+03 0.697E+01 -.418E+03   -.121E+03 -.695E+01 0.416E+03   0.689E+00 -.226E-01 0.189E+01   -.302E-02 0.178E-03 -.453E-02
   0.126E+03 0.394E+02 0.425E+03   -.126E+03 -.392E+02 -.422E+03   0.144E+00 -.480E+00 -.281E+01   -.545E-02 -.119E-03 0.735E-02
   0.126E+03 0.266E+02 -.138E+03   -.126E+03 -.262E+02 0.139E+03   -.339E+00 -.376E+00 -.723E+00   -.479E-02 0.284E-02 -.330E-02
   -.992E+02 -.862E+00 0.487E+03   0.995E+02 0.840E+00 -.484E+03   -.460E+00 0.632E-01 -.310E+01   0.108E-01 -.284E-02 0.562E-02
   -.151E+03 -.228E+01 -.119E+03   0.150E+03 0.224E+01 0.120E+03   0.318E+00 0.479E-01 -.530E+00   0.805E-02 -.463E-02 0.173E-02
   0.131E+03 0.283E+02 0.453E+03   -.130E+03 -.285E+02 -.451E+03   -.218E+00 0.324E+00 -.250E+01   -.123E-01 -.231E-02 0.683E-02
   0.143E+03 0.336E+02 -.130E+03   -.143E+03 -.333E+02 0.129E+03   -.594E+00 -.276E+00 0.898E+00   -.714E-02 -.350E-03 -.191E-02
   0.643E+02 0.304E+02 -.482E+03   -.649E+02 -.313E+02 0.478E+03   0.560E+00 0.957E+00 0.352E+01   -.726E-02 -.174E-02 -.204E-02
   0.129E+03 -.497E+01 0.197E+03   -.129E+03 0.459E+01 -.198E+03   0.257E+00 0.178E+00 0.532E-01   -.109E-01 0.977E-03 0.411E-02
   0.328E+02 0.286E+01 0.136E+03   -.326E+02 -.290E+01 -.137E+03   -.715E-01 -.161E+00 0.415E+00   0.297E-02 -.170E-02 0.459E-02
   -.539E+02 0.262E+02 -.402E+03   0.521E+02 -.257E+02 0.400E+03   0.176E+01 -.491E+00 0.239E+01   -.899E-03 0.168E-02 -.450E-02
   -.419E+02 -.179E+00 0.440E+03   0.422E+02 0.563E+00 -.437E+03   -.403E-01 -.266E+00 -.279E+01   0.792E-02 -.140E-03 0.614E-02
   -.700E+02 -.110E+01 -.118E+03   0.700E+02 0.728E+00 0.118E+03   -.469E-02 0.371E+00 -.109E+00   0.328E-02 0.667E-03 0.655E-04
   0.505E+02 -.271E+01 0.419E+03   -.505E+02 0.207E+01 -.416E+03   0.232E-01 0.181E+00 -.310E+01   0.402E-02 0.211E-02 0.626E-02
   0.341E+02 -.363E+01 -.141E+03   -.338E+02 0.344E+01 0.142E+03   -.319E+00 0.195E+00 -.584E+00   0.267E-02 -.774E-03 -.147E-02
   -.728E+02 -.358E+01 0.174E+03   0.729E+02 0.386E+01 -.174E+03   0.813E-01 0.115E+00 0.117E+00   0.835E-02 -.900E-03 0.657E-02
   -.619E+02 0.124E+02 -.406E+03   0.624E+02 -.124E+02 0.404E+03   -.502E+00 -.241E-01 0.282E+01   0.278E-02 0.218E-02 -.331E-02
   0.396E+02 0.822E+00 0.435E+03   -.389E+02 -.687E+00 -.431E+03   -.837E+00 -.310E+00 -.319E+01   0.232E-02 -.226E-02 0.765E-02
   0.300E+02 -.528E+00 -.110E+03   -.295E+02 0.613E+00 0.110E+03   -.564E+00 -.849E-01 -.546E+00   -.352E-03 -.279E-03 -.172E-02
   -.972E+02 0.157E+01 0.145E+03   0.968E+02 -.178E+01 -.146E+03   0.380E+00 0.222E+00 0.188E+00   0.731E-02 0.173E-02 0.570E-02
   -.828E+02 -.716E+02 -.422E+03   0.820E+02 0.695E+02 0.420E+03   0.799E+00 0.211E+01 0.243E+01   0.479E-02 -.295E-02 -.253E-02
   0.291E+02 -.506E+01 -.401E+03   -.286E+02 0.538E+01 0.399E+03   -.534E+00 -.317E+00 0.231E+01   0.117E-03 -.273E-02 -.436E-02
   0.488E+02 -.640E+01 0.177E+03   -.482E+02 0.624E+01 -.178E+03   -.593E+00 0.622E+00 -.172E-01   0.181E-02 0.144E-02 0.299E-02
   -.141E+03 -.429E+02 0.518E+03   0.140E+03 0.423E+02 -.515E+03   0.826E+00 0.455E-01 -.321E+01   0.447E-02 0.133E-02 0.331E-02
   -.143E+03 -.428E+02 -.124E+03   0.142E+03 0.423E+02 0.124E+03   0.366E+00 0.502E+00 -.777E+00   0.568E-02 -.107E-03 0.383E-02
   -.158E+03 0.404E+01 0.173E+03   0.157E+03 -.405E+01 -.173E+03   0.696E+00 0.414E+00 0.320E+00   0.102E-01 -.506E-03 0.455E-02
   -.678E+02 0.370E+02 -.427E+03   0.682E+02 -.358E+02 0.425E+03   -.454E+00 -.121E+01 0.228E+01   0.399E-02 -.219E-03 -.263E-02
   0.127E+03 0.386E+02 -.755E+03   -.128E+03 -.388E+02 0.763E+03   0.633E+00 0.261E+00 -.842E+01   -.294E-02 -.171E-02 0.572E-02
   -.784E+02 0.127E+02 -.784E+03   0.777E+02 -.146E+02 0.798E+03   0.645E+00 0.197E+01 -.144E+02   0.880E-02 0.262E-02 -.634E-02
   -.191E+01 -.169E+01 0.331E+02   0.355E-12 0.355E-14 0.796E-12   0.198E+01 0.164E+01 -.334E+02   -.761E-01 0.589E-01 0.244E+00

 POSITION                                       TOTAL-FORCE (eV/Angst)
      8.57631      8.29685     10.39845        -0.087991     -0.144535      0.008266
      8.56202      3.73267     15.11508        -0.000292      0.002338      0.005080
      8.48893      6.17261     17.34573        -0.006533      0.003146      0.001870
      8.51616      0.79995     12.43874        -0.018037     -0.128186     -0.188555
     13.44627      6.12346     15.33801        -0.000756     -0.001942      0.002403
     13.49094      1.15316     10.44749        -0.026179     -0.434666     -0.073766
     10.03344      3.28428     12.67411        -0.036019      0.444671     -0.610383
      9.99987      8.64743     17.16619        -0.000393     -0.002400     -0.000783
      7.12524      5.81577     10.15765        -0.189912     -0.489393      0.899787
      7.08073      1.26333     14.95283         0.000035      0.000115     -0.001798
      8.51222      3.28036     10.20450         0.267053      0.090260      0.717412
      8.54633      8.37025     14.87742        -0.000760     -0.000246     -0.000189
     10.22263      8.06723     12.77991         0.236759      0.298385     -0.519069
     10.22871      3.88832     17.33270         0.001351      0.002326     -0.001258
      5.42664      8.10481     10.20639         0.291370      0.068009      0.933210
      5.43471      3.53360     15.00154         0.001547     -0.001828     -0.003274
      8.52843      5.75423     12.65640         0.099751     -0.203132     -0.070621
      8.66710      1.54524     17.20902         0.002578     -0.000895     -0.002010
      3.84829      7.97317     12.47259        -0.364955      0.326211     -0.488112
      3.92390      3.64141     17.16796         0.001184     -0.006021      0.001539
      3.86218      5.66185     14.96661         0.000088     -0.001637     -0.001456
      3.90063      0.73891     10.00000         0.495114     -0.135664      0.338446
     10.10975      6.04754     14.96456         0.000112     -0.001973      0.001250
     10.19112      1.10470     10.13736        -0.217033      0.041135      0.368292
      6.82945      7.99424     12.66670        -0.094496      0.272590     -0.344198
      6.86395      3.64395     17.33155         0.000199     -0.000488      0.000126
     11.43869      6.31746     17.30315        -0.001958      0.001755      0.005256
     11.66772      1.05372     12.57547        -0.087674     -0.207937     -0.698191
     11.73919      3.33868     10.41199        -0.293580     -0.115550      0.577366
     11.72422      8.28254     15.23216        -0.002568     -0.008432      0.002994
      7.18522      3.24644     12.75390        -0.173298      0.347472     -0.530136
      7.24690      8.65481     17.25963        -0.001132     -0.002251      0.001872
      6.88984      5.98306     14.93969         0.001482      0.001639     -0.001485
      6.87795      0.97560     10.08695        -0.070567     -0.047983      0.168442
      5.51084      5.55012     12.48419         0.006400      0.399056     -0.198627
      5.37313      1.19461     17.14144         0.001420      0.000852      0.001703
      3.51249      3.50019     12.83519        -0.090908      0.032617     -0.478678
      3.26023      8.70950     17.30874        -0.000528      0.000519     -0.003470
      3.46798      5.87237     10.40868         0.065341     -0.244592     -0.089829
      3.35857      1.27863     15.17199        -0.001607     -0.000298     -0.001980
     11.91771      8.21633     10.24534        -0.145588      0.038122      0.642725
     11.89492      3.66053     15.08276         0.002123      0.000176     -0.003450
      5.24135      3.36543     10.32679         0.162098      0.089452      0.151575
      5.19686      8.34557     15.13089        -0.000564     -0.000578     -0.000586
      5.34648      6.25064     17.41997        -0.002384      0.000193     -0.000148
      5.28930      0.99064     12.60849         0.114269     -0.203165     -0.275747
      1.60538      5.84491     12.85122         0.151630     -0.203065     -0.381368
      1.49411      1.69732     17.65876         0.000820     -0.000946      0.000662
     13.72038      5.67134     10.18293         0.210305      0.118951      0.664360
     13.71614      1.08622     15.09163        -0.000447     -0.002116     -0.000194
      1.63456      8.33987     10.36453        -0.041435     -0.457691      0.154109
      1.56726      3.77051     15.25082        -0.000002     -0.001802      0.002581
     13.76831      3.16119     12.53308         0.136015      0.388068     -0.324083
      0.01978      8.38200     17.26911         0.001390     -0.001216     -0.000056
      1.99440      3.17314     10.17666        -0.105421     -0.177386      0.693371
      1.85460      8.07941     14.93059        -0.000062     -0.000735     -0.001549
     13.48051      8.37930     12.86886        -0.080105      0.012246     -0.412604
     13.30852      4.25032     17.76641        -0.001469     -0.000789      0.000043
      2.05907      6.06091     17.18575         0.000089     -0.001923      0.001452
      2.02729      0.87737     12.46815        -0.018106      0.457910     -0.453166
     10.07171      5.79402     10.14663         0.151291     -0.608503      0.208422
     10.17288      1.23777     14.89419         0.001833     -0.000650     -0.000263
     11.97051      5.66181     12.67660        -0.243356      0.406956     -0.393023
     11.95782      1.46120     17.57795         0.000196     -0.001526      0.002131
      5.26466      8.60508     17.55468         0.001649     -0.000505     -0.003615
     13.57504      2.38856     18.65251         0.000622     -0.002523      0.000973
    total drift:                               -0.006271      0.003921     -0.027962

  FREE ENERGIE OF THE ION-ELECTRON SYSTEM (eV)
  free  energy   TOTEN  =      -526.18819664 eV

  energy  without entropy=     -526.19374869  energy(sigma->0) =     -526.18958465

 d Force = 0.2386532E-04[ 0.195E-04, 0.283E-04]  d Energy = 0.4377199E-04-0.199E-04
 d Force = 0.2613891E-01[ 0.261E-01, 0.262E-01]  d Ewald  = 0.2613891E-01 0.130E-08

 reached required accuracy - stopping structural energy minimisation