 vasp.5.4.1 05Feb16 (build Mar 19 2020 08:54:17) complex

 executed on           IFC91_ompi date 2021.11.11  22:35:17

 INCAR:
 POTCAR:    PAW_PBE Al 04Jan2001
 POTCAR:    PAW_PBE Nb_sv 25May2007
 POTCAR:    PAW_PBE Ta 17Jan2003
 POTCAR:    PAW_PBE Ti 08Apr2002
 POTCAR:   PAW_PBE Zr 08Apr2002
 POTCAR:    PAW_PBE O 08Apr2002

 POTCAR:    PAW_PBE Al 04Jan2001
   VRHFIN =Al: s2p1

   TITEL  = PAW_PBE Al 04Jan2001
   POMASS =   26.981; ZVAL   =    3.000    mass and valenz
   ENMAX  =  240.300; ENMIN  =  180.225 eV

 POTCAR:    PAW_PBE Nb_sv 25May2007
   VRHFIN =Nb: 4p5s4d

   TITEL  = PAW_PBE Nb_sv 25May2007
   POMASS =   92.910; ZVAL   =   13.000    mass and valenz
   ENMAX  =  293.235; ENMIN  =  219.927 eV

 POTCAR:    PAW_PBE Ta 17Jan2003
   VRHFIN =Ta:  6s5d

   TITEL  = PAW_PBE Ta 17Jan2003
   POMASS =  180.948; ZVAL   =    5.000    mass and valenz
   ENMAX  =  223.667; ENMIN  =  167.750 eV

 POTCAR:    PAW_PBE Ti 08Apr2002
   VRHFIN =Ti: d3 s1

   TITEL  = PAW_PBE Ti 08Apr2002
   POMASS =   47.880; ZVAL   =    4.000    mass and valenz
   ENMAX  =  178.330; ENMIN  =  133.747 eV

 POTCAR:   PAW_PBE Zr 08Apr2002
   VRHFIN =Zr: 5s4d5p

   TITEL  = PAW_PBE Zr 08Apr2002
   POMASS =   91.224; ZVAL   =    4.000    mass and valenz
   ENMAX  =  154.632; ENMIN  =  115.974 eV
   QCUT   =   -3.371; QGAM   =    6.742    optimization parameters

   Description
     l     E      TYP  RCUT    TYP  RCUT
     2   .000     23  3.000
     2   .000     23  3.000
     0   .000     23  3.000
     0  2.000     23  3.000
     1  -.400     23  3.000
     3   .000      7   .000

 POTCAR:    PAW_PBE O 08Apr2002
   VRHFIN =O: s2p4

   TITEL  = PAW_PBE O 08Apr2002
   POMASS =   16.000; ZVAL   =    6.000    mass and valenz
   ENMAX  =  400.000; ENMIN  =  300.000 eV

 Optimization of the real space projectors (new method)

 maximal supplied QI-value         = 19.84
 optimisation between [QCUT,QGAM] = [ 12.50, 25.00] = [ 43.76,175.03] Ry
 Optimized for a Real-space Cutoff    1.06 Angstroem

   l    n(q)    QCUT    max X(q) W(low)/X(q) W(high)/X(q)  e(spline)
   0      8    12.501   176.870    0.16E-03    0.12E-03    0.66E-07
   0      8    12.501   105.762    0.15E-03    0.12E-03    0.64E-07
   1      7    12.501    55.370    0.36E-03    0.38E-03    0.67E-07
   1      7    12.501    20.208    0.32E-03    0.35E-03    0.64E-07
 Optimization of the real space projectors (new method)

[...]

   l    n(q)    QCUT    max X(q) W(low)/X(q) W(high)/X(q)  e(spline)
   2     11    12.478    49.363    0.45E-03    0.34E-03    0.89E-06
   2     11    12.478    47.669    0.44E-03    0.33E-03    0.87E-06
   0     12    12.478    26.374    0.17E-03    0.37E-04    0.21E-05
   0     12    12.478    11.549    0.13E-03    0.31E-04    0.17E-05
   1     11    12.478     9.492    0.91E-05    0.64E-04    0.34E-06
 Optimization of the real space projectors (new method)

[...]

   l    n(q)    QCUT    max X(q) W(low)/X(q) W(high)/X(q)  e(spline)
   2     12    12.472     5.149    0.23E-04    0.12E-05    0.19E-06
   2     12    12.472    48.417    0.26E-03    0.15E-03    0.35E-05
   0     13    12.472    27.113    0.15E-04    0.46E-05    0.14E-06
   0     13    12.472    33.957    0.20E-04    0.33E-04    0.12E-05
   1     12    12.472    13.771    0.11E-04    0.23E-05    0.34E-06
 WARNING: PSMAXN for non-local potential too small
          PSMAXN should be >   12.5490833729506       NTYP=           5
 Optimization of the real space projectors (new method)

 maximal supplied QI-value         = 24.76
 optimisation between [QCUT,QGAM] = [ 12.38, 25.00] = [ 42.90,175.06] Ry
 Optimized for a Real-space Cutoff    1.13 Angstroem

   l    n(q)    QCUT    max X(q) W(low)/X(q) W(high)/X(q)  e(spline)
   0      8    12.378    20.381    0.16E-03    0.54E-05    0.27E-06
   0      8    12.378    15.268    0.17E-03    0.61E-05    0.29E-06
   1      8    12.378     5.964    0.38E-03    0.23E-03    0.28E-06
   1      8    12.378     5.382    0.33E-03    0.20E-03    0.25E-06
  PAW_PBE Al 04Jan2001                  :
  PAW_PBE Nb_sv 25May2007               :
  PAW_PBE Ta 17Jan2003                  :
  PAW_PBE Ti 08Apr2002                  :
 PAW_PBE Zr 08Apr2002                   :
  PAW_PBE O 08Apr2002                   :

 POSCAR: Al Nb Ta Ti Zr
  positions in direct lattice
  velocities in cartesian coordinates
 exchange correlation table for  LEXCH =        8
   RHO(1)=    0.500       N(1)  =     2000
   RHO(2)=  100.500       N(2)  =     4000

 ion  position               nearest neighbor table
   1  0.623  0.867  0.376-  34 2.83  25 2.88  24 2.88   9 2.88  13 2.90   4 2.91  61 2.93  15 3.16
                            41 3.35  17 3.40
   2  0.619  0.402  0.546-  31 2.77  33 2.79   3 2.84  23 2.85  26 2.88  14 2.91   7 2.91  10 2.93
                            62 2.97  17 3.10  16 3.21  42 3.41
   3  0.632  0.625  0.613-  75 1.90  23 2.64  32 2.66  14 2.70   8 2.75   2 2.84  27 2.85  33 2.86
                            26 2.96  12 3.05
   4  0.618  0.084  0.450-  31 2.80  24 2.86  34 2.87  13 2.88   1 2.91  25 2.92   7 2.92  62 3.00
                            10 3.09  28 3.16  46 3.24
   5  0.974  0.641  0.552-  30 2.82  27 2.90  56 2.92  42 2.94  63 3.01  52 3.02  54 3.12  47 3.12
                            23 3.19  59 3.21  57 3.29  58 3.40
   6  0.980  0.121  0.378-  29 2.80  28 2.80  53 2.91  41 2.96  51 3.05  55 3.05  60 3.08  57 3.37

   7  0.729  0.343  0.458-  28 2.77  29 2.83  31 2.85  17 2.89  11 2.90   2 2.91   4 2.92  63 3.07
                            62 3.07  42 3.14
   8  0.727  0.875  0.625-  71 2.07  27 2.62  30 2.65  18 2.71   3 2.75  12 2.77  32 2.91  64 3.07
                            62 3.36
   9  0.517  0.608  0.367-  35 2.84  15 2.85  17 2.87   1 2.88  11 2.89  61 2.95  43 3.10
  10  0.510  0.139  0.545-  16 2.79  36 2.89  18 2.92   2 2.93  12 2.97  62 3.00  31 3.02  46 3.04
                             4 3.09  44 3.09
  11  0.618  0.343  0.369-  24 2.75  34 2.83  31 2.87   9 2.89   7 2.90  61 2.96  43 3.27
  12  0.614  0.867  0.542-   8 2.77  33 2.82  32 2.83  13 2.84  23 2.84  25 2.86  10 2.97  62 2.98
                             3 3.05  44 3.28
  13  0.742  0.843  0.462-  12 2.84  23 2.85  17 2.87   4 2.88   1 2.90  30 2.91  28 2.94  63 2.98
                            41 3.05  57 3.27
  14  0.730  0.389  0.635-  76 1.95  74 2.02   3 2.70  27 2.89   2 2.91  64 2.99  42 3.05  18 3.08
                            58 3.16
  15  0.394  0.847  0.369-  22 2.68  19 2.76  25 2.83  34 2.84   9 2.85  39 2.98   1 3.16  46 3.43

  16  0.387  0.372  0.546-  21 2.65  10 2.79  26 2.79  20 2.83  33 2.88  37 2.91  40 2.91  31 3.00
                             2 3.21  45 3.46
  17  0.619  0.602  0.458-  33 2.78  23 2.80  25 2.81  31 2.85   9 2.87  13 2.87   7 2.89  61 2.95
                            35 3.03   2 3.10   1 3.40  63 3.44
  18  0.619  0.110  0.635-  72 1.99  74 2.04  71 2.09   8 2.71  32 2.91  10 2.92  62 2.99  36 3.02
                            14 3.08  26 3.15  64 3.27
  19  0.279  0.834  0.451-  15 2.76  35 2.94  46 2.96  39 2.97  44 2.97  25 2.99  60 3.07  51 3.08
                            47 3.12  21 3.18  56 3.26
  20  0.276  0.349  0.632-  69 1.99  70 2.03  67 2.18  16 2.83  36 2.96  48 3.01  45 3.05  26 3.08
                            40 3.09  52 3.14  59 3.29
  21  0.277  0.594  0.531-  16 2.65  35 2.79  45 2.86  47 2.87  37 2.88  52 3.01  33 3.02  56 3.02
                            44 3.08  19 3.18
  22  0.283  0.077  0.361-  15 2.68  46 2.97  43 2.97  34 2.99  51 3.02  55 3.10  60 3.10
  23  0.745  0.638  0.536-   3 2.64  30 2.75  63 2.79  17 2.80  12 2.84  13 2.85   2 2.85  27 2.89
                            42 3.03   5 3.19
  24  0.740  0.115  0.366-  29 2.73  11 2.75  28 2.85   4 2.86   1 2.88  41 3.00
  25  0.496  0.836  0.458-  35 2.78  17 2.81  15 2.83  12 2.86   1 2.88   4 2.92  33 2.92  44 2.96
                            19 2.99  46 2.99
  26  0.498  0.388  0.630-  70 1.98  74 2.02  75 2.25  16 2.79   2 2.88   3 2.96  20 3.08  36 3.10
                            18 3.15  45 3.18
  27  0.835  0.650  0.631-  76 2.02  68 2.07   8 2.62  58 2.76   3 2.85  14 2.89  23 2.89   5 2.90
                            54 3.08  30 3.08  42 3.51
  28  0.847  0.110  0.455-   7 2.77   6 2.80  24 2.85  57 2.90  62 2.94  13 2.94  53 2.98  50 3.13
                            29 3.15   4 3.16  41 3.36
  29  0.852  0.349  0.376-  24 2.73   6 2.80   7 2.83  53 2.94  61 2.98  49 3.07  28 3.15  63 3.25

  30  0.851  0.876  0.552-   8 2.65  23 2.75   5 2.82  13 2.91  57 2.97  50 2.99  62 3.00  54 3.04
                            27 3.08  64 3.44
  31  0.522  0.339  0.461-   2 2.77   4 2.80  17 2.85   7 2.85  35 2.86  11 2.87  46 2.95  16 3.00
                            10 3.02  43 3.11
  32  0.518  0.843  0.632-  72 2.01  65 2.08  75 2.14   3 2.66  12 2.83   8 2.91  18 2.91  36 2.92
                            45 2.93  44 3.11
  33  0.495  0.629  0.536-  35 2.72  17 2.78   2 2.79  12 2.82   3 2.86  16 2.88  44 2.91  25 2.92
                            21 3.02  45 3.14
  34  0.499  0.102  0.365-  11 2.83   1 2.83  15 2.84   4 2.87  43 2.91  46 2.98  22 2.99
  35  0.400  0.580  0.451-  33 2.72  25 2.78  21 2.79   9 2.84  31 2.86  37 2.88  39 2.93  19 2.94
                            17 3.03  43 3.08
  36  0.400  0.096  0.633-  72 1.97  70 2.02  67 2.06  65 2.15  10 2.89  32 2.92  20 2.96  18 3.02
                            38 3.03  26 3.10  40 3.16  44 3.20
  37  0.255  0.366  0.464-  21 2.88  35 2.88  16 2.91  47 3.02  60 3.04  43 3.05  55 3.08  46 3.08
                            52 3.17  40 3.17  39 3.39
  38  0.222  0.909  0.634-  73 1.90  65 2.05  67 2.10  56 2.82  59 3.03  36 3.03  48 3.07  54 3.09
                            45 3.10  44 3.25  40 3.28
  39  0.252  0.614  0.376-  35 2.93  19 2.97  15 2.98  47 3.07  43 3.07  51 3.07  55 3.08  37 3.39
                            49 3.53
  40  0.251  0.139  0.548-  67 2.36  16 2.91  44 3.02  60 3.07  20 3.09  52 3.11  46 3.15  36 3.16
                            37 3.17  48 3.21  38 3.28  56 3.30  50 3.56
  41  0.865  0.859  0.370-   6 2.96  24 3.00  61 3.05  13 3.05  57 3.06  49 3.12   1 3.35  28 3.36
                            51 3.49  63 3.53
  42  0.866  0.376  0.548-   5 2.94  62 3.01  23 3.03  14 3.05  50 3.09  58 3.12   7 3.14  53 3.23
                            63 3.23  64 3.40  52 3.41   2 3.41  27 3.51
  43  0.381  0.352  0.373-  34 2.91  22 2.97  37 3.05  39 3.07  35 3.08   9 3.10  31 3.11  55 3.26
                            11 3.27  46 3.29
  44  0.376  0.880  0.546-  65 2.32  33 2.91  25 2.96  19 2.97  40 3.02  21 3.08  10 3.09  32 3.11
                            45 3.14  36 3.20  38 3.25  46 3.28  12 3.28  56 3.31
  45  0.354  0.648  0.625-  69 2.10  75 2.15  65 2.20  21 2.86  32 2.93  20 3.05  38 3.10  59 3.11
                            33 3.14  44 3.14  26 3.18  16 3.46
  46  0.384  0.104  0.456-  31 2.95  19 2.96  22 2.97  34 2.98  25 2.99  10 3.04  37 3.08  40 3.15
                             4 3.24  60 3.27  44 3.28  43 3.29  15 3.43
  47  0.117  0.611  0.465-  21 2.87  37 3.02  39 3.07  56 3.11  19 3.12   5 3.12  53 3.14  49 3.15
                            57 3.17  52 3.20  63 3.42  51 3.52  55 3.80
[...]

  length of vectors
    13.771350861  9.564481735 27.662570434     0.072614518  0.104553496  0.036149931

 FORCES acting on ions
    electron-ion (+dipol)            ewald-force                    non-local-force                 convergence-correction
   -.483E+02 -.351E+02 0.429E+03   0.481E+02 0.349E+02 -.428E+03   0.975E-01 0.919E-01 -.801E+00   -.683E-03 0.110E-03 0.152E-03
   -.310E+02 -.271E+02 -.277E+02   0.306E+02 0.272E+02 0.270E+02   0.386E+00 -.138E+00 0.728E+00   -.577E-03 -.450E-04 -.131E-02
   -.227E+02 0.162E+02 -.241E+03   0.259E+02 -.145E+02 0.240E+03   -.317E+01 -.167E+01 0.139E+01   -.286E-03 0.354E-03 -.148E-02
   0.868E+00 0.723E+01 0.254E+03   -.676E+00 -.699E+01 -.254E+03   -.255E+00 -.268E+00 -.780E-01   -.854E-03 -.169E-03 -.555E-03
   -.615E+02 0.820E+01 -.105E+02   0.611E+02 -.779E+01 0.999E+01   0.348E+00 -.405E+00 0.511E+00   0.623E-03 0.397E-03 -.165E-02
   -.450E+02 0.472E+01 0.372E+03   0.442E+02 -.409E+01 -.370E+03   0.687E+00 -.101E+01 -.226E+01   0.353E-04 0.681E-03 0.113E-04
   -.387E+03 0.830E+01 0.744E+03   0.387E+03 -.755E+01 -.745E+03   0.255E+00 -.360E+00 0.943E+00   -.553E-04 0.245E-02 -.918E-02
   -.331E+03 0.172E+03 -.127E+04   0.330E+03 -.171E+03 0.127E+04   0.154E+01 -.134E+01 0.292E+01   -.652E-02 0.383E-02 -.772E-02
   0.954E+02 -.880E+01 0.184E+04   -.950E+02 0.769E+01 -.184E+04   -.541E+00 0.595E+00 -.433E+01   -.323E-02 0.132E-02 0.189E-02
   0.129E+03 0.137E+02 -.907E+01   -.130E+03 -.136E+02 0.103E+02   0.620E+00 -.114E+00 -.120E+01   -.536E-02 -.155E-02 -.414E-02
   -.585E+02 0.142E+03 0.191E+04   0.593E+02 -.141E+03 -.190E+04   -.533E+00 -.395E+00 -.269E+01   0.221E-02 -.797E-03 0.558E-03
   0.488E+02 0.838E+02 -.235E+02   -.484E+02 -.844E+02 0.241E+02   -.433E+00 0.671E+00 -.610E+00   -.175E-02 0.398E-03 -.430E-02
   -.402E+03 -.256E+02 0.100E+04   0.403E+03 0.242E+02 -.100E+04   -.818E+00 0.171E+01 -.176E+01   -.443E-02 -.223E-02 -.146E-02
   -.217E+03 -.190E+02 -.110E+04   0.218E+03 0.196E+02 0.110E+04   -.106E+01 -.605E+00 0.462E+00   -.238E-02 -.343E-02 -.345E-02
   0.293E+03 -.119E+03 0.175E+04   -.293E+03 0.119E+03 -.174E+04   0.245E+00 -.344E+00 -.425E+01   -.324E-03 0.294E-02 0.423E-03
   0.370E+03 -.130E+03 -.213E+02   -.370E+03 0.130E+03 0.217E+02   0.247E+00 -.152E-01 -.413E+00   -.293E-02 -.646E-02 -.536E-02
   -.203E+02 0.107E+01 0.301E+03   0.197E+02 -.106E+01 -.301E+03   0.568E+00 0.204E-01 -.259E+00   -.465E-03 0.200E-03 -.886E-03
   -.256E+02 -.186E+02 -.496E+03   0.252E+02 0.183E+02 0.495E+03   0.382E+00 0.342E+00 0.119E+01   -.460E-03 -.633E-03 -.191E-02
   0.177E+03 -.899E+01 0.287E+03   -.176E+03 0.888E+01 -.288E+03   -.144E+01 0.615E+00 0.506E+00   0.179E-02 0.174E-02 -.195E-02
   0.189E+03 -.288E+02 -.451E+03   -.187E+03 0.302E+02 0.448E+03   -.134E+01 -.139E+01 0.258E+01   0.547E-03 -.772E-03 -.265E-02
   0.141E+03 -.492E+02 0.318E+02   -.140E+03 0.494E+02 -.321E+02   -.442E+00 -.275E+00 0.278E+00   0.107E-02 -.151E-02 -.176E-02
   0.117E+03 -.557E+02 0.533E+03   -.115E+03 0.557E+02 -.530E+03   -.888E+00 -.254E+00 -.264E+01   0.148E-02 -.701E-04 0.139E-02
   -.123E+03 0.675E+02 -.129E+02   0.123E+03 -.665E+02 0.125E+02   0.122E+00 -.942E+00 0.359E+00   -.121E-02 0.799E-03 -.229E-02
   -.100E+03 0.601E+02 0.584E+03   0.996E+02 -.596E+02 -.580E+03   0.411E+00 -.539E+00 -.285E+01   -.338E-03 0.910E-03 -.139E-03
   0.702E+02 -.210E+02 0.259E+03   -.711E+02 0.204E+02 -.259E+03   0.960E+00 0.929E+00 -.587E+00   -.508E-03 0.371E-03 -.101E-02
   0.307E+02 -.674E+02 -.391E+03   -.310E+02 0.656E+02 0.390E+03   0.345E+00 0.185E+01 0.137E+01   -.135E-02 -.582E-03 -.201E-02
   -.828E+02 -.367E+02 -.327E+03   0.825E+02 0.365E+02 0.325E+03   0.297E+00 0.194E+00 0.229E+01   -.836E-03 0.384E-03 -.166E-02
   -.159E+03 0.685E+01 0.276E+03   0.159E+03 -.680E+01 -.276E+03   0.307E+00 -.192E+00 -.938E-01   0.150E-03 0.923E-03 -.171E-02
   -.150E+03 -.494E+01 0.544E+03   0.149E+03 0.486E+01 -.541E+03   0.714E+00 -.166E-02 -.253E+01   -.440E-03 -.357E-04 0.343E-03
   -.196E+03 -.154E+02 -.374E+02   0.195E+03 0.154E+02 0.376E+02   0.104E+01 0.240E-01 -.251E+00   -.541E-03 -.139E-03 -.151E-02
   0.799E+02 0.840E+01 0.266E+03   -.801E+02 -.808E+01 -.266E+03   -.237E-03 -.846E-01 -.272E+00   -.154E-02 -.118E-03 -.899E-03
   0.334E+02 0.627E+02 -.442E+03   -.318E+02 -.609E+02 0.440E+03   -.159E+01 -.173E+01 0.240E+01   0.212E-03 0.591E-03 -.216E-02
   0.665E+02 0.536E+01 -.159E+01   -.670E+02 -.492E+01 0.324E+00   0.424E+00 -.444E+00 0.127E+01   0.424E-04 0.246E-03 -.216E-02
   0.335E+02 -.103E+01 0.564E+03   -.342E+02 0.100E+01 -.561E+03   0.604E+00 -.755E-03 -.240E+01   -.107E-02 -.460E-03 0.564E-03
   0.128E+03 0.121E+02 0.259E+03   -.127E+03 -.125E+02 -.259E+03   -.928E+00 0.575E+00 -.385E+00   0.118E-03 -.107E-02 -.114E-02
   0.919E+02 0.195E+02 -.395E+03   -.901E+02 -.182E+02 0.394E+03   -.185E+01 -.124E+01 0.144E+01   -.366E-03 0.788E-03 -.228E-02
   0.129E+03 0.102E+02 0.281E+03   -.129E+03 -.101E+02 -.280E+03   0.801E-01 -.358E+00 -.676E+00   0.120E-02 -.168E-02 -.119E-02
   0.808E+02 0.133E+02 -.343E+03   -.821E+02 -.145E+02 0.341E+03   0.127E+01 0.111E+01 0.217E+01   -.243E-03 0.283E-03 -.198E-02
   0.127E+03 0.394E+02 0.496E+03   -.127E+03 -.392E+02 -.493E+03   0.184E+00 -.424E+00 -.267E+01   0.152E-02 -.314E-03 0.683E-03
   0.150E+03 0.349E+02 0.281E+02   -.150E+03 -.340E+02 -.284E+02   -.215E+00 -.940E+00 0.275E+00   0.940E-03 0.882E-03 -.215E-02
   -.981E+02 -.174E+01 0.550E+03   0.983E+02 0.171E+01 -.547E+03   -.425E+00 0.373E-01 -.306E+01   -.447E-03 -.512E-04 -.160E-03
   -.144E+03 0.548E+01 -.191E+02   0.144E+03 -.552E+01 0.195E+02   0.301E+00 0.399E-01 -.372E+00   0.244E-04 0.958E-04 -.206E-02
   0.129E+03 0.294E+02 0.521E+03   -.129E+03 -.297E+02 -.519E+03   -.260E+00 0.375E+00 -.254E+01   -.540E-03 -.522E-03 0.145E-02
   0.144E+03 0.288E+02 0.130E+02   -.143E+03 -.289E+02 -.136E+02   -.739E+00 0.108E+00 0.578E+00   0.515E-03 0.142E-02 -.172E-02
   0.924E+02 -.977E+01 -.341E+03   -.925E+02 0.866E+01 0.338E+03   0.130E+00 0.111E+01 0.207E+01   -.113E-03 -.356E-03 -.869E-03
   0.119E+03 -.645E+01 0.296E+03   -.120E+03 0.613E+01 -.296E+03   0.637E+00 0.396E+00 -.199E+00   -.850E-03 0.756E-03 -.525E-03
   0.422E+02 0.251E+01 0.236E+03   -.420E+02 -.245E+01 -.236E+03   -.359E+00 -.409E-01 -.621E-01   0.759E-04 -.106E-02 -.117E-02
   0.265E+02 0.512E+01 -.329E+03   -.278E+02 -.426E+01 0.327E+03   0.130E+01 -.866E+00 0.210E+01   0.149E-02 -.178E-03 -.153E-02
   -.400E+02 -.170E+00 0.504E+03   0.402E+02 0.500E+00 -.501E+03   -.360E-01 -.247E+00 -.284E+01   -.628E-03 -.773E-03 0.389E-03
   -.602E+02 -.449E+01 -.141E+01   0.601E+02 0.450E+01 0.159E+01   0.419E-01 -.832E-02 -.180E+00   0.160E-02 -.175E-03 -.146E-02
   0.529E+02 -.327E+01 0.486E+03   -.529E+02 0.263E+01 -.483E+03   -.143E-01 0.221E+00 -.311E+01   0.683E-03 0.677E-03 0.229E-03
   0.540E+02 -.309E+01 -.314E+02   -.538E+02 0.242E+01 0.319E+02   -.223E+00 0.670E+00 -.523E+00   0.127E-02 -.136E-02 -.194E-02
   -.675E+02 -.306E+01 0.263E+03   0.676E+02 0.314E+01 -.263E+03   0.879E-01 0.203E+00 0.100E+00   0.763E-03 -.679E-04 -.133E-02
   -.113E+02 -.648E+02 -.315E+03   0.124E+02 0.634E+02 0.313E+03   -.108E+01 0.138E+01 0.197E+01   0.145E-02 0.700E-03 -.163E-02
   0.416E+02 0.134E+01 0.500E+03   -.409E+02 -.121E+01 -.496E+03   -.804E+00 -.308E+00 -.328E+01   0.703E-03 -.558E-03 0.150E-02
   0.456E+02 -.288E+01 0.238E+01   -.451E+02 0.312E+01 -.185E+01   -.443E+00 -.242E+00 -.526E+00   0.171E-03 0.134E-02 -.920E-03
   -.933E+02 0.301E+00 0.239E+03   0.930E+02 -.397E+00 -.239E+03   0.580E+00 0.154E+00 -.452E-01   0.488E-03 0.107E-03 -.663E-03
   -.124E+03 0.149E+02 -.380E+03   0.123E+03 -.157E+02 0.378E+03   0.158E+01 0.762E+00 0.173E+01   0.775E-03 -.880E-03 -.635E-03
   0.217E+02 0.331E+02 -.322E+03   -.211E+02 -.319E+02 0.321E+03   -.586E+00 -.114E+01 0.128E+01   0.100E-02 0.213E-03 -.987E-03
   0.544E+02 -.536E+01 0.270E+03   -.537E+02 0.529E+01 -.271E+03   -.706E+00 0.258E+00 -.949E-02   0.160E-02 0.142E-02 -.215E-03
[...]
   -.159E+03 0.595E+01 0.266E+03   0.158E+03 -.614E+01 -.267E+03   0.917E+00 0.385E+00 0.120E+00   -.407E-03 -.702E-03 -.135E-02
   -.141E+03 0.124E+02 -.347E+03   0.141E+03 -.126E+02 0.345E+03   0.484E+00 0.183E+00 0.185E+01   -.459E-03 -.101E-04 -.818E-03
   0.153E+03 0.699E+02 -.585E+03   -.153E+03 -.689E+02 0.590E+03   -.128E+00 -.100E+01 -.477E+01   -.881E-03 -.285E-03 -.334E-02
   -.979E+02 0.390E+02 -.798E+03   0.984E+02 -.431E+02 0.812E+03   -.571E+00 0.420E+01 -.147E+02   0.141E-02 -.432E-03 -.325E-03
   0.192E+03 0.191E+02 -.581E+03   -.193E+03 -.216E+02 0.586E+03   0.104E+01 0.248E+01 -.496E+01   0.763E-05 0.303E-02 -.339E-02
   -.855E+02 -.172E+02 -.689E+03   0.851E+02 0.191E+02 0.698E+03   0.433E+00 -.183E+01 -.923E+01   0.374E-02 0.138E-02 -.386E-03
   0.999E+02 -.328E+02 -.819E+03   -.100E+03 0.354E+02 0.837E+03   0.277E+00 -.262E+01 -.187E+02   0.133E-02 -.233E-02 -.276E-02
   0.908E+02 -.375E+02 -.918E+03   -.858E+02 0.364E+02 0.937E+03   -.499E+01 0.102E+01 -.187E+02   -.417E-02 -.507E-06 -.174E-02
   -.151E+03 -.437E+02 -.992E+03   0.153E+03 0.428E+02 0.101E+04   -.234E+01 0.936E+00 -.202E+02   -.240E-02 -.441E-03 -.169E-02
   0.627E+02 0.499E+02 -.975E+03   -.666E+02 -.515E+02 0.995E+03   0.388E+01 0.160E+01 -.203E+02   0.976E-03 0.131E-02 -.840E-03
   0.270E+02 -.260E+02 -.821E+03   -.285E+02 0.266E+02 0.839E+03   0.158E+01 -.602E+00 -.180E+02   0.266E-03 0.479E-03 -.114E-02
   0.879E+02 -.124E+02 -.944E+03   -.923E+02 0.153E+02 0.962E+03   0.436E+01 -.291E+01 -.178E+02   0.305E-02 -.145E-02 -.847E-03
   0.541E+02 0.303E+01 -.737E+03   -.556E+02 -.596E+01 0.747E+03   0.158E+01 0.293E+01 -.986E+01   -.129E-02 0.668E-03 -.207E-02
   -.153E+03 -.880E+02 -.978E+03   0.152E+03 0.919E+02 0.997E+03   0.981E+00 -.395E+01 -.196E+02   -.301E-02 -.405E-02 0.211E-03
   -.417E+01 0.257E+01 0.197E+03   0.568E-13 -.114E-12 0.136E-11   0.410E+01 -.256E+01 -.197E+03   -.200E-01 -.477E-02 -.104E+00

 POSITION                                       TOTAL-FORCE (eV/Angst)
      8.57631      8.29685     10.39845        -0.072164     -0.172902      0.016406
      8.52955      3.84286     15.09702        -0.001855      0.005217     -0.000233
      8.70263      5.97954     16.96478        -0.002059      0.002390      0.000701
      8.51616      0.79995     12.43874        -0.062258     -0.029127      0.073172
     13.41746      6.12694     15.26896         0.000094     -0.000947     -0.002094
     13.49094      1.15316     10.44749        -0.017837     -0.383262     -0.031265
     10.03344      3.28428     12.67411        -0.049852      0.400621     -0.414302
     10.01584      8.37156     17.28625         0.001954      0.004581      0.003235
      7.12524      5.81577     10.15765        -0.137458     -0.514164      0.926618
      7.01936      1.33211     15.08764         0.002862      0.000456      0.001187
      8.51222      3.28036     10.20450         0.266791      0.060954      0.837000
      8.45759      8.29547     14.99257         0.001586     -0.001096      0.001623
     10.22263      8.06723     12.77991         0.263254      0.330660     -0.324343
     10.05914      3.72078     17.56397         0.006996      0.001220      0.000594
      5.42664      8.10481     10.20639         0.310310      0.091645      0.858613
      5.33640      3.55713     15.10020         0.003118     -0.002101      0.001876
      8.52843      5.75423     12.65640         0.006153      0.026964     -0.409557
      8.52864      1.05124     17.57721        -0.000650     -0.002035     -0.002383
      3.84829      7.97317     12.47259        -0.530248      0.508790     -0.509416
      3.79870      3.34256     17.47108        -0.000720     -0.004502      0.001405
      3.80991      5.68556     14.68826        -0.001632     -0.000161     -0.000892
      3.90063      0.73891     10.00000         0.427406     -0.207741      0.379495
     10.25477      6.09773     14.83697        -0.000418      0.002472      0.000437
     10.19112      1.10470     10.13736        -0.221823      0.011260      0.303399
      6.82945      7.99424     12.66670         0.100071      0.285978     -0.412075
      6.85882      3.71492     17.43554        -0.000920     -0.004453      0.002461
     11.50146      6.22139     17.44140         0.007925     -0.001317      0.003176
     11.66772      1.05372     12.57547        -0.346850     -0.140455     -0.429551
     11.73919      3.33868     10.41199        -0.269794     -0.080417      0.610789
     11.72013      8.38149     15.25910        -0.001266      0.002364     -0.000316
      7.18522      3.24644     12.75390        -0.245027      0.240806     -0.385170
      7.13404      8.06080     17.48779         0.004590     -0.000071     -0.001495
      6.81088      6.01851     14.82330        -0.000556     -0.000984     -0.000519
      6.87795      0.97560     10.08695        -0.062923     -0.031578      0.259934
      5.51084      5.55012     12.48419        -0.115125      0.242102     -0.649741
      5.50868      0.92295     17.51153         0.002728      0.003421      0.000927
      3.51249      3.50019     12.83519        -0.020875     -0.235629     -0.230938
      3.06380      8.69472     17.55047        -0.000270      0.001823     -0.002355
      3.46798      5.87237     10.40868         0.086796     -0.219001     -0.054336
      3.45686      1.33290     15.15003         0.001007      0.000539     -0.001221
     11.91771      8.21633     10.24534        -0.220086      0.012009      0.727290
     11.93285      3.59178     15.15505         0.000115     -0.000924     -0.001553
      5.24135      3.36543     10.32679         0.139422      0.069605      0.120587
      5.17707      8.41629     15.09195         0.000732     -0.001083     -0.000676
      4.87942      6.19383     17.29097         0.000369     -0.000078      0.003005
      5.28930      0.99064     12.60849         0.254688      0.076609     -0.341030
      1.60538      5.84491     12.85122        -0.202441      0.012824     -0.626704
      1.31405      1.64837     17.52548         0.000194      0.000269      0.002050
     13.72038      5.67134     10.18293         0.186737      0.082071      0.613573
     13.68565      1.04988     14.97030         0.001384     -0.001028     -0.000560
      1.63456      8.33987     10.36453         0.050950     -0.415574      0.144255
      1.55989      3.79220     15.30921        -0.000033     -0.001550     -0.002408
     13.76831      3.16119     12.53308         0.165577      0.285442     -0.203728
      0.00510      8.29022     17.49421         0.001318     -0.001894      0.002071
      1.99440      3.17314     10.17666        -0.120417     -0.178279      0.603774
      1.89176      7.99096     15.08224        -0.000950      0.000541     -0.001400
     13.48051      8.37930     12.86886         0.203455      0.057735     -0.436181
     13.16948      4.08547     17.97996         0.000897     -0.000069      0.000516
      1.79796      5.94332     17.64968        -0.000752      0.001315     -0.000375
      2.02729      0.87737     12.46815         0.000490      0.191259     -0.460814
     10.07171      5.79402     10.14663         0.158247     -0.572504      0.159348
     10.01816      1.27172     14.99540        -0.001136     -0.000848     -0.000447
     11.97051      5.66181     12.67660         0.027206      0.194978     -0.722245
     11.79092      1.28686     17.65161         0.001307     -0.000367      0.000899
      5.08551      8.38312     17.41362         0.002423     -0.000972      0.001200
     13.44653      2.17056     18.70664         0.001352      0.000387     -0.000629
      3.46536      1.19142     17.50901         0.000325     -0.001230      0.000795
     13.43228      6.26401     18.17955        -0.001038     -0.000731     -0.002714
      3.56259      5.05331     18.46361         0.000027      0.000007      0.002088
      5.47117      2.71366     18.43792         0.001177      0.000018     -0.002219
     10.20313      0.37538     18.62469         0.001825     -0.000716     -0.001329
      7.01234      0.20129     18.55173         0.004885      0.000686      0.000442
      1.77859      7.87928     18.67988         0.004165     -0.002065      0.000016
      8.42606      2.90760     18.42399         0.002647      0.001812      0.000220
      6.96489      5.94327     17.73418         0.004209     -0.000001      0.002395
     11.27662      4.69567     18.74147        -0.000327      0.000026     -0.000361
    total drift:                               -0.084519      0.001810      0.011641

  FREE ENERGIE OF THE ION-ELECTRON SYSTEM (eV)
  free  energy   TOTEN  =      -627.47015405 eV

  energy  without entropy=     -627.46668239  energy(sigma->0) =     -627.46928613