 vasp.5.4.1 05Feb16 (build Mar 19 2020 08:54:17) complex

 executed on           IFC91_ompi date 2021.11.11  21:56:23

 INCAR:
 POTCAR:    PAW_PBE Al 04Jan2001
 POTCAR:    PAW_PBE Nb_sv 25May2007
 POTCAR:    PAW_PBE Ta 17Jan2003
 POTCAR:    PAW_PBE Ti 08Apr2002
 POTCAR:   PAW_PBE Zr 08Apr2002
 POTCAR:    PAW_PBE O 08Apr2002

 POTCAR:    PAW_PBE Al 04Jan2001
   VRHFIN =Al: s2p1

   TITEL  = PAW_PBE Al 04Jan2001
   POMASS =   26.981; ZVAL   =    3.000    mass and valenz
   ENMAX  =  240.300; ENMIN  =  180.225 eV

 POTCAR:    PAW_PBE Nb_sv 25May2007
   VRHFIN =Nb: 4p5s4d

   TITEL  = PAW_PBE Nb_sv 25May2007
   POMASS =   92.910; ZVAL   =   13.000    mass and valenz
   ENMAX  =  293.235; ENMIN  =  219.927 eV

 POTCAR:    PAW_PBE Ta 17Jan2003
   VRHFIN =Ta:  6s5d

   TITEL  = PAW_PBE Ta 17Jan2003
   POMASS =  180.948; ZVAL   =    5.000    mass and valenz
   ENMAX  =  223.667; ENMIN  =  167.750 eV

 POTCAR:    PAW_PBE Ti 08Apr2002
   VRHFIN =Ti: d3 s1

   TITEL  = PAW_PBE Ti 08Apr2002
   POMASS =   47.880; ZVAL   =    4.000    mass and valenz
   ENMAX  =  178.330; ENMIN  =  133.747 eV

 POTCAR:   PAW_PBE Zr 08Apr2002
   VRHFIN =Zr: 5s4d5p

   TITEL  = PAW_PBE Zr 08Apr2002
   POMASS =   91.224; ZVAL   =    4.000    mass and valenz
   ENMAX  =  154.632; ENMIN  =  115.974 eV
   QCUT   =   -3.371; QGAM   =    6.742    optimization parameters

   Description
     l     E      TYP  RCUT    TYP  RCUT
     2   .000     23  3.000
     2   .000     23  3.000
     0   .000     23  3.000
     0  2.000     23  3.000
     1  -.400     23  3.000
     3   .000      7   .000

 POTCAR:    PAW_PBE O 08Apr2002
   VRHFIN =O: s2p4

   TITEL  = PAW_PBE O 08Apr2002
   POMASS =   16.000; ZVAL   =    6.000    mass and valenz
   ENMAX  =  400.000; ENMIN  =  300.000 eV

 Optimization of the real space projectors (new method)

 maximal supplied QI-value         = 19.84
 optimisation between [QCUT,QGAM] = [ 12.50, 25.00] = [ 43.76,175.03] Ry
 Optimized for a Real-space Cutoff    1.06 Angstroem

   l    n(q)    QCUT    max X(q) W(low)/X(q) W(high)/X(q)  e(spline)
   0      8    12.501   176.870    0.16E-03    0.12E-03    0.66E-07
   0      8    12.501   105.762    0.15E-03    0.12E-03    0.64E-07
   1      7    12.501    55.370    0.36E-03    0.38E-03    0.67E-07
   1      7    12.501    20.208    0.32E-03    0.35E-03    0.64E-07
 Optimization of the real space projectors (new method)

[...]

   l    n(q)    QCUT    max X(q) W(low)/X(q) W(high)/X(q)  e(spline)
   2     11    12.478    49.363    0.45E-03    0.34E-03    0.89E-06
   2     11    12.478    47.669    0.44E-03    0.33E-03    0.87E-06
   0     12    12.478    26.374    0.17E-03    0.37E-04    0.21E-05
   0     12    12.478    11.549    0.13E-03    0.31E-04    0.17E-05
   1     11    12.478     9.492    0.91E-05    0.64E-04    0.34E-06
 Optimization of the real space projectors (new method)

[...]

   l    n(q)    QCUT    max X(q) W(low)/X(q) W(high)/X(q)  e(spline)
   2     12    12.472     5.149    0.23E-04    0.12E-05    0.19E-06
   2     12    12.472    48.417    0.26E-03    0.15E-03    0.35E-05
   0     13    12.472    27.113    0.15E-04    0.46E-05    0.14E-06
   0     13    12.472    33.957    0.20E-04    0.33E-04    0.12E-05
   1     12    12.472    13.771    0.11E-04    0.23E-05    0.34E-06
 WARNING: PSMAXN for non-local potential too small
          PSMAXN should be >   12.5490833729506       NTYP=           5
 Optimization of the real space projectors (new method)

 maximal supplied QI-value         = 24.76
 optimisation between [QCUT,QGAM] = [ 12.38, 25.00] = [ 42.90,175.06] Ry
 Optimized for a Real-space Cutoff    1.13 Angstroem

   l    n(q)    QCUT    max X(q) W(low)/X(q) W(high)/X(q)  e(spline)
   0      8    12.378    20.381    0.16E-03    0.54E-05    0.27E-06
   0      8    12.378    15.268    0.17E-03    0.61E-05    0.29E-06
   1      8    12.378     5.964    0.38E-03    0.23E-03    0.28E-06
   1      8    12.378     5.382    0.33E-03    0.20E-03    0.25E-06
  PAW_PBE Al 04Jan2001                  :
  PAW_PBE Nb_sv 25May2007               :
  PAW_PBE Ta 17Jan2003                  :
  PAW_PBE Ti 08Apr2002                  :
 PAW_PBE Zr 08Apr2002                   :
  PAW_PBE O 08Apr2002                   :

 POSCAR: Al Nb Ta Ti Zr
  positions in direct lattice
  velocities in cartesian coordinates
 exchange correlation table for  LEXCH =        8
   RHO(1)=    0.500       N(1)  =     2000
   RHO(2)=  100.500       N(2)  =     4000

 ion  position               nearest neighbor table
   1  0.623  0.867  0.376-  34 2.83  25 2.88  24 2.88   9 2.88  13 2.90   4 2.91  61 2.93  15 3.16
                            41 3.35  17 3.40
   2  0.623  0.381  0.544-  90 1.87  86 1.91  94 1.95  31 2.71  23 2.71   7 2.79  33 2.80  10 3.05
                            62 3.06  16 3.14  26 3.17  17 3.18  42 3.34
   3  0.612  0.659  0.637-  78 1.78  79 1.80  75 1.82  86 1.83  85 2.06  91 2.32  32 2.77  26 2.90
                            23 2.97   8 3.06  45 3.14  33 3.17
   4  0.618  0.084  0.450-  31 2.80  24 2.86  34 2.87  13 2.88   1 2.91  25 2.92   7 2.92  62 3.12
                            28 3.16  46 3.24
   5  0.972  0.640  0.543-  93 1.92  82 1.99  88 2.03  30 2.71  63 2.78  47 2.96  42 3.01  52 3.03
                            23 3.11  57 3.12  56 3.16  59 3.59
   6  0.980  0.121  0.378-  29 2.80  28 2.80  53 2.91  41 2.96  51 3.05  55 3.05  60 3.08  57 3.37

   7  0.729  0.343  0.458-  28 2.77   2 2.79  29 2.83  31 2.85  17 2.89  11 2.90   4 2.92  63 3.07
                            42 3.10  62 3.25
   8  0.743  0.917  0.640-  78 2.05  91 2.08  71 2.10  77 2.19  83 2.22  18 2.66  27 2.88  64 2.98
                            30 2.98  32 3.01   3 3.06  62 3.24
   9  0.517  0.608  0.367-  35 2.84  15 2.85  17 2.87   1 2.88  11 2.89  61 2.95  43 3.10
  10  0.497  0.122  0.558-  90 2.15  92 2.19  94 2.22  16 2.80  12 2.94  44 2.96  36 2.97   2 3.05
                            18 3.07  32 3.09  46 3.24  62 3.40  40 3.47
  11  0.618  0.343  0.369-  24 2.75  34 2.83  31 2.87   9 2.89   7 2.90  61 2.96  43 3.27
  12  0.611  0.869  0.540-  91 2.04  85 2.38  25 2.79  13 2.82  33 2.83  10 2.94  62 2.94  30 3.08
                            44 3.16
  13  0.742  0.843  0.462-  30 2.63  12 2.82  17 2.87   4 2.88   1 2.90  28 2.94  63 2.98  41 3.05
                            57 3.27  62 3.42
  14  0.770  0.407  0.653-  74 1.95  79 1.96  89 2.00  76 2.05  58 2.96  27 2.98  64 3.04  18 3.18
                            42 3.25
  15  0.394  0.847  0.369-  22 2.68  19 2.76  25 2.83  34 2.84   9 2.85  39 2.98   1 3.16  46 3.43

  16  0.397  0.366  0.532-  94 1.96  84 2.05  87 2.22  92 2.31  31 2.62  37 2.71  21 2.78  10 2.80
                            33 2.82  20 2.96  35 3.03  40 3.05   2 3.14  46 3.28
  17  0.619  0.602  0.458-  33 2.72  25 2.81  31 2.85   9 2.87  13 2.87   7 2.89  61 2.95  35 3.03
                             2 3.18  23 3.34   1 3.40  63 3.44
  18  0.630  0.142  0.647-  72 2.00  90 2.00  71 2.06  74 2.13  32 2.58   8 2.66  89 2.72  26 2.83
                            10 3.07  36 3.15  14 3.18  62 3.25  64 3.58
  19  0.279  0.834  0.451-  15 2.76  35 2.94  46 2.96  39 2.97  25 2.99  44 3.00  60 3.07  51 3.08
                            47 3.12  56 3.25
  20  0.286  0.365  0.624-  70 2.06  92 2.12  69 2.13  87 2.19  84 2.30  67 2.43  16 2.96  36 2.97
                            48 3.07  59 3.10  21 3.14  40 3.22  26 3.24  52 3.24  45 3.34
  21  0.269  0.589  0.541-  84 2.10  87 2.10  80 2.14  82 2.17  16 2.78  47 2.99  56 3.00  37 3.03
                            59 3.05  44 3.06  35 3.08  52 3.09  20 3.14  45 3.43
  22  0.283  0.077  0.361-  15 2.68  46 2.97  43 2.97  34 2.99  51 3.02  55 3.10  60 3.10
  23  0.751  0.592  0.559-  91 1.99  86 2.15  93 2.25  79 2.48  30 2.67  42 2.70   2 2.71   3 2.97
                             5 3.11  63 3.22  17 3.34
  24  0.740  0.115  0.366-  29 2.73  11 2.75  28 2.85   4 2.86   1 2.88  41 3.00
  25  0.496  0.836  0.458-  35 2.78  12 2.79  17 2.81  15 2.83   1 2.88  44 2.91   4 2.92  19 2.99
                            46 2.99  33 3.03
  26  0.517  0.390  0.645-  70 1.87  94 1.89  74 1.99  75 1.99  86 2.51  18 2.83   3 2.90  36 3.04
                             2 3.17  20 3.24  45 3.30
  27  0.869  0.683  0.660-  76 1.99  79 2.00  77 2.01  68 2.03  93 2.05   8 2.88  58 2.89  54 2.94
                            14 2.98
  28  0.847  0.110  0.455-   7 2.77   6 2.80  24 2.85  62 2.86  57 2.90  13 2.94  53 2.98  29 3.15
                             4 3.16  50 3.26  41 3.36
  29  0.852  0.349  0.376-  24 2.73   6 2.80   7 2.83  53 2.94  61 2.98  49 3.07  28 3.15  63 3.25

  30  0.834  0.841  0.545-  83 2.05  91 2.07  88 2.18  13 2.63  23 2.67   5 2.71  62 2.88   8 2.98
                            57 3.00  12 3.08  50 3.12  63 3.43
  31  0.522  0.339  0.461-  16 2.62   2 2.71   4 2.80  17 2.85   7 2.85  35 2.86  11 2.87  46 2.95
                            43 3.11
  32  0.525  0.920  0.644-  78 1.96  72 2.01  85 2.06  65 2.06  36 2.57  18 2.58   3 2.77   8 3.01
                            45 3.01  10 3.09  44 3.39
  33  0.503  0.617  0.537-  85 2.11  86 2.15  87 2.43  17 2.72  35 2.79   2 2.80  16 2.82  12 2.83
                            44 2.90  25 3.03   3 3.17  45 3.48
  34  0.499  0.102  0.365-  11 2.83   1 2.83  15 2.84   4 2.87  43 2.91  46 2.98  22 2.99
  35  0.400  0.580  0.451-  25 2.78  33 2.79   9 2.84  31 2.86  37 2.88  39 2.93  19 2.94  17 3.03
                            16 3.03  21 3.08  43 3.08
  36  0.403  0.119  0.655-  72 1.98  70 2.03  92 2.04  67 2.05  65 2.13  32 2.57  38 2.92  10 2.97
                            20 2.97  26 3.04  18 3.15
  37  0.255  0.366  0.464-  84 2.18  16 2.71  35 2.88  47 3.02  21 3.03  60 3.04  43 3.05  55 3.08
                            46 3.08  40 3.11  52 3.29  39 3.39
  38  0.238  0.930  0.643-  73 1.88  65 2.03  67 2.08  80 2.22  48 2.88  54 2.91  36 2.92  56 2.99
                            59 3.12  45 3.15  44 3.41  40 3.41
  39  0.252  0.614  0.376-  35 2.93  19 2.97  15 2.98  47 3.07  43 3.07  51 3.07  55 3.08  37 3.39
                            49 3.53
  40  0.247  0.132  0.542-  92 2.14  84 2.29  60 2.90  56 3.02  46 3.05  16 3.05  37 3.11  52 3.16
                            44 3.17  20 3.22  48 3.32  38 3.41  10 3.47  50 3.66
  41  0.865  0.859  0.370-   6 2.96  24 3.00  61 3.05  13 3.05  57 3.06  49 3.12   1 3.35  28 3.36
                            51 3.49  63 3.53
  42  0.865  0.365  0.547-  89 2.23  81 2.35  93 2.50  23 2.70  62 2.97   5 3.01   7 3.10  50 3.14
                            53 3.20  52 3.21  14 3.25  63 3.27   2 3.34  58 3.54  64 3.73
  43  0.381  0.352  0.373-  34 2.91  22 2.97  37 3.05  39 3.07  35 3.08   9 3.10  31 3.11  55 3.26
                            11 3.27  46 3.29
  44  0.382  0.864  0.546-  80 2.31  85 2.43  33 2.90  25 2.91  10 2.96  19 3.00  21 3.06  12 3.16
                            40 3.17  56 3.21  45 3.30  46 3.39  32 3.39  38 3.41
  45  0.385  0.678  0.646-  69 2.07  75 2.09  87 2.14  65 2.16  80 2.24  85 2.30  32 3.01   3 3.14
                            38 3.15  59 3.21  44 3.30  26 3.30  20 3.34  21 3.43  33 3.48
  46  0.384  0.104  0.456-  31 2.95  19 2.96  22 2.97  34 2.98  25 2.99  40 3.05  37 3.08  10 3.24
[...]
   -.128E+03 0.618E+02 0.155E+03   0.128E+03 -.617E+02 -.157E+03   0.248E+00 -.939E-01 0.192E+01   -.708E-03 0.572E-03 -.144E-02
   -.991E+02 0.606E+02 0.729E+03   0.985E+02 -.601E+02 -.726E+03   0.470E+00 -.369E+00 -.280E+01   -.129E-03 0.598E-03 0.808E-03
   0.761E+02 -.332E+02 0.447E+03   -.770E+02 0.322E+02 -.447E+03   0.100E+01 0.109E+01 -.899E+00   -.258E-03 0.197E-04 0.625E-03
   0.461E+02 -.122E+02 -.592E+03   -.465E+02 0.120E+02 0.593E+03   0.388E+00 0.115E+00 -.977E+00   -.367E-03 0.111E-02 -.168E-02
   -.125E+03 -.514E+02 -.600E+03   0.125E+03 0.508E+02 0.600E+03   0.296E-01 0.553E+00 0.316E+00   -.232E-03 0.163E-03 -.139E-02
   -.160E+03 0.321E+01 0.475E+03   0.160E+03 -.299E+01 -.476E+03   0.428E+00 -.438E+00 -.105E+00   -.112E-02 -.747E-04 -.961E-03
   -.149E+03 -.355E+01 0.697E+03   0.148E+03 0.357E+01 -.693E+03   0.824E+00 -.104E+00 -.268E+01   -.108E-02 -.724E-03 0.620E-03
   -.178E+03 0.189E+02 0.190E+03   0.178E+03 -.186E+02 -.193E+03   0.272E+00 -.259E+00 0.242E+01   -.633E-03 -.283E-03 -.141E-02
   0.567E+02 0.308E+02 0.488E+03   -.562E+02 -.301E+02 -.489E+03   -.262E+00 -.152E+00 -.825E+00   0.595E-03 -.123E-03 0.112E-03
   0.108E+03 -.152E+01 -.520E+03   -.107E+03 0.268E+01 0.520E+03   -.111E+01 -.113E+01 0.688E+00   0.228E-03 -.118E-02 -.180E-02
   0.772E+02 -.363E+02 0.228E+03   -.769E+02 0.370E+02 -.230E+03   -.272E+00 -.690E+00 0.270E+01   -.320E-03 -.901E-04 -.703E-03
   0.327E+02 0.210E+01 0.707E+03   -.334E+02 -.216E+01 -.704E+03   0.562E+00 0.177E-01 -.239E+01   0.358E-03 0.209E-03 0.669E-03
   0.127E+03 -.141E+02 0.465E+03   -.127E+03 0.139E+02 -.464E+03   -.926E+00 0.732E+00 -.665E+00   -.432E-03 0.359E-04 0.115E-02
   0.106E+03 0.518E+02 -.613E+03   -.105E+03 -.505E+02 0.613E+03   -.638E+00 -.138E+01 0.566E+00   0.154E-03 0.324E-03 -.135E-02
   0.145E+03 0.208E+02 0.530E+03   -.146E+03 -.206E+02 -.532E+03   0.300E+00 -.238E+00 0.145E+01   0.354E-03 0.225E-03 0.451E-04
   0.939E+02 -.402E+02 -.428E+03   -.953E+02 0.409E+02 0.427E+03   0.138E+01 -.722E+00 0.458E+00   0.123E-03 -.628E-03 -.157E-02
   0.126E+03 0.350E+02 0.652E+03   -.126E+03 -.347E+02 -.649E+03   0.163E+00 -.528E+00 -.298E+01   -.212E-03 0.297E-03 0.825E-03
   0.187E+03 0.113E+03 0.154E+03   -.187E+03 -.113E+03 -.154E+03   -.685E+00 0.280E+00 0.538E-01   0.692E-03 -.143E-03 -.155E-02
   -.965E+02 -.297E+01 0.701E+03   0.968E+02 0.299E+01 -.697E+03   -.555E+00 0.476E-01 -.325E+01   -.302E-03 0.580E-03 0.795E-03
   -.145E+03 -.285E+01 0.198E+03   0.144E+03 0.195E+01 -.200E+03   0.501E+00 0.880E+00 0.166E+01   -.392E-03 0.345E-03 -.159E-02
   0.128E+03 0.321E+02 0.679E+03   -.127E+03 -.325E+02 -.677E+03   -.174E+00 0.394E+00 -.232E+01   -.342E-03 -.335E-03 0.527E-03
   0.154E+03 -.218E+02 0.141E+03   -.154E+03 0.229E+02 -.144E+03   -.238E+00 -.114E+01 0.295E+01   0.191E-03 -.418E-03 -.130E-02
   0.958E+02 -.462E+02 -.576E+03   -.956E+02 0.442E+02 0.574E+03   -.127E+00 0.200E+01 0.175E+01   0.591E-03 -.381E-03 -.161E-02
   0.112E+03 0.192E+02 0.481E+03   -.112E+03 -.194E+02 -.481E+03   0.486E+00 -.132E+00 -.113E+00   -.317E-03 -.905E-04 0.330E-03
   0.386E+02 -.289E+01 0.469E+03   -.385E+02 0.300E+01 -.471E+03   0.198E+00 0.380E-01 0.765E+00   0.430E-03 0.413E-03 -.241E-03
   -.121E+02 0.270E+02 -.409E+03   0.126E+02 -.280E+02 0.409E+03   -.437E+00 0.893E+00 0.394E+00   0.237E-03 0.366E-03 -.131E-02
   -.385E+02 0.209E-02 0.656E+03   0.388E+02 0.334E+00 -.652E+03   -.209E+00 -.227E+00 -.293E+01   0.217E-03 0.179E-04 0.625E-03
   -.142E+03 -.268E+02 0.152E+03   0.142E+03 0.271E+02 -.152E+03   -.207E+00 -.318E+00 0.510E+00   0.112E-03 -.447E-03 -.137E-02
   0.509E+02 -.631E+01 0.637E+03   -.509E+02 0.558E+01 -.634E+03   0.161E-02 0.272E+00 -.329E+01   0.248E-03 -.589E-04 0.716E-03
   0.543E+02 0.441E+02 0.889E+02   -.537E+02 -.449E+02 -.892E+02   -.613E+00 0.780E+00 0.315E+00   0.605E-03 0.448E-03 -.122E-02
   -.644E+02 0.853E+01 0.456E+03   0.645E+02 -.816E+01 -.457E+03   0.635E-01 0.238E+00 0.216E-01   -.229E-04 0.206E-03 -.602E-03
   -.942E+02 -.741E+02 -.442E+03   0.955E+02 0.744E+02 0.441E+03   -.131E+01 -.367E+00 0.326E-01   -.382E-03 -.567E-03 -.122E-02
   0.436E+02 0.431E+01 0.651E+03   -.428E+02 -.422E+01 -.647E+03   -.860E+00 -.282E+00 -.325E+01   0.116E-03 -.953E-05 0.332E-03
   0.778E+01 -.908E+02 0.128E+03   -.773E+01 0.914E+02 -.129E+03   -.362E-01 -.602E+00 0.315E+00   0.482E-03 -.355E-03 -.176E-02
   -.995E+02 -.160E+02 0.461E+03   0.989E+02 0.155E+02 -.462E+03   0.901E+00 0.222E+00 0.100E+01   -.187E-03 -.312E-03 -.526E-03
   -.174E+03 0.133E+02 -.530E+03   0.173E+03 -.142E+02 0.530E+03   0.140E+01 0.860E+00 -.145E+00   0.112E-03 0.611E-03 -.915E-03
   0.429E+02 0.389E+02 -.420E+03   -.426E+02 -.387E+02 0.420E+03   -.284E+00 -.186E+00 -.773E+00   0.367E-04 -.199E-03 -.146E-02
   0.557E+02 0.162E+01 0.450E+03   -.551E+02 -.181E+01 -.451E+03   -.997E+00 0.339E+00 0.668E-01   0.595E-03 -.415E-03 -.235E-03
[...]
   -.194E+03 0.220E+02 -.198E+03   0.191E+03 -.220E+02 0.198E+03   0.308E+01 -.201E-01 0.228E-01   0.300E-03 0.584E-03 -.184E-02
   0.510E+02 0.491E+01 0.132E+03   -.507E+02 -.515E+01 -.131E+03   -.298E+00 0.253E+00 -.783E+00   0.756E-03 0.419E-03 -.252E-02
   -.303E+03 -.732E+02 -.905E+02   0.308E+03 0.733E+02 0.929E+02   -.462E+01 -.229E+00 -.242E+01   -.107E-02 -.177E-02 -.173E-02
   0.389E+03 0.450E+02 0.203E+03   -.394E+03 -.467E+02 -.204E+03   0.478E+01 0.173E+01 0.117E+01   0.138E-02 0.507E-03 -.112E-02
   0.218E+03 -.165E+02 -.309E+03   -.219E+03 0.162E+02 0.306E+03   0.684E+00 0.241E+00 0.284E+01   -.196E-03 -.158E-02 -.379E-02
   -.195E+02 0.589E+01 -.136E+03   0.172E+02 -.905E+01 0.137E+03   0.245E+01 0.326E+01 -.691E+00   -.188E-02 0.939E-03 -.279E-02
   0.163E+03 -.162E+03 -.311E+03   -.155E+03 0.164E+03 0.311E+03   -.761E+01 -.172E+01 0.601E+00   0.104E-02 0.316E-03 -.326E-02
   -.176E+03 -.480E+02 0.934E+02   0.175E+03 0.497E+02 -.906E+02   0.126E+01 -.166E+01 -.279E+01   -.133E-03 -.900E-03 -.190E-02
   -.212E+03 0.582E+02 -.219E+03   0.209E+03 -.645E+02 0.213E+03   0.336E+01 0.631E+01 0.604E+01   -.108E-03 0.100E-03 -.188E-02
   -.155E+03 -.374E+01 -.818E+02   0.156E+03 0.858E+01 0.821E+02   -.787E+00 -.486E+01 -.333E+00   -.162E-02 0.821E-04 -.368E-02
   -.155E+03 0.109E+03 -.936E+02   0.154E+03 -.113E+03 0.975E+02   0.124E+01 0.464E+01 -.393E+01   -.302E-03 0.629E-03 -.198E-02
   0.323E+03 0.176E+03 -.298E+03   -.322E+03 -.180E+03 0.298E+03   -.988E+00 0.391E+01 -.125E+00   0.324E-03 0.128E-02 -.548E-02
   -.230E+03 0.243E+02 -.144E+03   0.230E+03 -.250E+02 0.145E+03   -.594E-01 0.740E+00 -.105E+01   0.186E-03 0.108E-02 -.168E-02
   -.380E+02 -.797E+02 -.222E+03   0.408E+02 0.805E+02 0.226E+03   -.273E+01 -.733E+00 -.385E+01   -.102E-02 0.112E-02 -.259E-02
   -.544E+01 0.712E+01 0.260E+03   0.142E-11 0.000E+00 0.355E-11   0.545E+01 -.711E+01 -.260E+03   -.156E-02 -.691E-03 -.111E+00

 POSITION                                       TOTAL-FORCE (eV/Angst)
      8.57631      8.29685     10.39845        -0.042926     -0.191047      0.092197
      8.58356      3.64742     15.03515         0.010240      0.013422      0.016539
      8.42726      6.30497     17.62701        -0.016856     -0.021839      0.007670
      8.51616      0.79995     12.43874         0.102496     -0.139118      0.531106
     13.38687      6.12422     15.02517         0.005728     -0.038858      0.008936
     13.49094      1.15316     10.44749         0.011789     -0.424013      0.024916
     10.03344      3.28428     12.67411         0.222693      0.189573     -0.016648
     10.23292      8.76971     17.69808        -0.015810     -0.013046      0.067696
      7.12524      5.81577     10.15765        -0.107528     -0.386267      0.927353
      6.84417      1.16957     15.44051         0.001412      0.019026      0.040122
      8.51222      3.28036     10.20450         0.169477      0.058754      0.792075
      8.42029      8.30872     14.93572         0.032061     -0.004607      0.000954
     10.22263      8.06723     12.77991         0.026409      0.547298     -1.078593
     10.59756      3.89303     18.06405         0.030405      0.007184     -0.009077
      5.42664      8.10481     10.20639         0.289248      0.087229      0.849400
      5.46374      3.50146     14.71813         0.042338      0.013513      0.055837
      8.52843      5.75423     12.65640         0.330727     -0.091975     -0.329996
      8.68193      1.36069     17.89348         0.053967      0.007352     -0.024415
      3.84829      7.97317     12.47259        -0.674425      0.362870      0.105747
      3.94377      3.49493     17.25587        -0.011076      0.002174      0.028541
      3.70061      5.63402     14.97148         0.010828      0.009473     -0.004514
      3.90063      0.73891     10.00000         0.501473     -0.149772      0.303541
     10.34244      5.66024     15.45397         0.088240     -0.009144      0.109699
     10.19112      1.10470     10.13736        -0.170321      0.143624      0.407224
      6.82945      7.99424     12.66670         0.099303      0.081566     -0.776364
      7.12108      3.72556     17.84612        -0.043063     -0.082223      0.147796
     11.96246      6.53167     18.26444         0.011027     -0.010247      0.059554
     11.66772      1.05372     12.57547        -0.181532     -0.211991     -0.630062
     11.73919      3.33868     10.41199        -0.314904     -0.091407      0.505239
     11.48476      8.04672     15.08963         0.058337     -0.001901     -0.035291
      7.18522      3.24644     12.75390         0.274093      0.513752     -1.920860
      7.22880      8.79462     17.81120        -0.004388      0.036567     -0.075654
      6.93018      5.90122     14.85733         0.027178      0.018216     -0.027045
      6.87795      0.97560     10.08695        -0.119184     -0.043756      0.378931
      5.51084      5.55012     12.48419        -0.330434      0.603612     -0.103833
      5.54497      1.14244     18.11133        -0.000208     -0.038649      0.010785
      3.51249      3.50019     12.83519        -0.750456     -0.097719     -0.844097
      3.27904      8.89279     17.79995         0.016892     -0.017197      0.008843
      3.46798      5.87237     10.40868         0.008453     -0.240656     -0.131172
      3.40099      1.26566     14.99339         0.024984      0.013793      0.010569
     11.91771      8.21633     10.24534        -0.243378      0.071924      0.663087
     11.91881      3.49466     15.12633         0.004194     -0.027635      0.028549
      5.24135      3.36543     10.32679         0.110125      0.075463      0.144922
      5.26249      8.26095     15.09828         0.013628     -0.003460     -0.001371
      5.30405      6.48591     17.87711        -0.012464     -0.006833      0.016336
      5.28930      0.99064     12.60849         0.223981     -0.313666     -0.143950
      1.60538      5.84491     12.85122         0.295433      0.144153     -0.887247
      1.54647      1.63123     17.72341         0.008059     -0.023021      0.000048
     13.72038      5.67134     10.18293         0.161040      0.109628      0.670207
     13.55217      0.81889     15.22547         0.014840      0.005561      0.002257
      1.63456      8.33987     10.36453        -0.027268     -0.457150      0.084039
      1.35333      3.65253     15.30891         0.018068      0.001605      0.019810
     13.76831      3.16119     12.53308         0.163656      0.608708     -0.085747
      0.40686      8.40348     17.81529        -0.008909     -0.002515     -0.018596
      1.99440      3.17314     10.17666        -0.112964     -0.190466      0.723790
      2.05712      8.13081     15.17787         0.020425      0.015911     -0.003892
     13.48051      8.37930     12.86886         0.291981     -0.319411     -0.410336
     13.55049      4.11709     18.20432         0.019407     -0.015116     -0.001118
      2.14275      6.00025     17.57371        -0.010645      0.008736     -0.010326
      2.02729      0.87737     12.46815        -0.387578      0.148379     -0.561977
[...]
      3.72664      7.18600     16.44753         0.008711      0.015144      0.007476
     13.57739      2.63408     16.55235         0.006508     -0.020508      0.009059
      1.57892      5.94016     15.29906         0.015716      0.016354     -0.022416
     11.72111      0.09918     16.32081         0.003287     -0.040472      0.032341
      3.43870      3.55304     15.01249         0.023284      0.004461     -0.016947
      6.97690      7.23743     16.49095        -0.025587     -0.020415      0.004238
      8.40896      5.13164     16.22104         0.096879      0.097294     -0.097413
      5.19298      5.02425     16.31431        -0.056050      0.004032      0.017708
     13.62186      8.08650     15.49286         0.028633      0.015983     -0.037840
     10.95676      2.38768     16.80341        -0.028595     -0.049033      0.038591
      8.70949      2.05887     16.01667        -0.007459     -0.022457     -0.053127
      9.80914      7.44425     16.14702         0.078807      0.045217     -0.001687
      4.96705      1.90144     16.30477         0.017928      0.035936      0.024294
     12.32521      5.53033     16.51335        -0.038333      0.017654      0.025925
      6.92873      3.31460     16.01189         0.036581      0.097166      0.121472
    total drift:                                0.008090      0.016034      0.077802

  FREE ENERGIE OF THE ION-ELECTRON SYSTEM (eV)
  free  energy   TOTEN  =      -789.21639729 eV

  energy  without entropy=     -789.21077710  energy(sigma->0) =     -789.21499224

 total charge

# of ion     s       p       d       tot
  1        0.431   0.361   0.000   0.792
  2        0.375   0.391   0.000   0.766
  3        0.330   0.425   0.000   0.755
  4        0.407   0.376   0.000   0.783
  5        0.389   0.360   0.000   0.749
  6        0.439   0.365   0.000   0.803
  7        2.206   5.993   2.455  10.653
  8        2.172   6.048   2.425  10.645
  9        2.217   5.944   2.502  10.663
 10        2.172   6.022   2.375  10.568
 11        2.219   5.944   2.490  10.654
 12        2.196   6.013   2.456  10.664
 13        2.210   5.990   2.477  10.677
 14        2.194   6.061   2.400  10.656
 15        2.223   5.937   2.566  10.726
 16        2.203   6.061   2.546  10.810
 17        0.724   0.601   3.183   4.508
 18        0.645   0.921   3.569   5.135
 19        0.727   0.602   3.097   4.425
 20        0.559   0.785   3.234   4.578
 21        0.430   0.667   2.641   3.738
 22        0.524   0.382   2.359   3.265
 23        0.431   0.645   2.575   3.651
 24        0.478   0.394   2.361   3.233
 25        0.519   0.640   2.399   3.559
 26        0.519   0.842   2.787   4.148
 27        0.478   0.775   2.733   3.985
 28        0.509   0.568   2.375   3.451
 29        0.509   0.431   2.354   3.294
 30        0.488   0.679   2.714   3.882
 31        0.525   0.622   2.490   3.638
 32        0.514   0.827   2.816   4.158
 33        0.472   0.629   2.562   3.663
 34        0.480   0.439   2.358   3.277
 35        0.529   0.628   2.364   3.521
 36        0.457   0.749   2.716   3.922
 37        0.487   0.574   2.403   3.464
 38        0.481   0.761   2.684   3.926
 39        0.554   0.390   2.312   3.256
 40        0.507   0.590   2.431   3.528
 41        0.510   0.360   2.251   3.121
 42        0.476   0.545   2.435   3.457
 43        0.547   0.403   2.250   3.200
 44        0.504   0.527   2.397   3.429
 45        0.465   0.691   2.430   3.586
 46        0.534   0.588   2.252   3.373
 47        0.498   0.525   2.275   3.299
 48        0.511   0.621   2.531   3.663
 49        0.515   0.338   2.205   3.059
 50        0.445   0.574   2.328   3.346
 51        0.515   0.386   2.210   3.110
 52        0.468   0.605   2.435   3.509
 53        0.531   0.501   2.284   3.317
 54        0.460   0.626   2.418   3.504
 55        0.503   0.350   2.180   3.032
 56        0.479   0.617   2.403   3.499
 57        0.521   0.497   2.304   3.322
 58        0.465   0.641   2.534   3.639
 59        0.452   0.667   2.523   3.642
 60        0.542   0.517   2.297   3.356
[...]
 80        1.557   3.493   0.000   5.050
 81        1.557   3.487   0.000   5.044
 82        1.557   3.486   0.000   5.043
 83        1.562   3.502   0.000   5.063
 84        1.564   3.526   0.000   5.090
 85        1.556   3.507   0.000   5.063
 86        1.558   3.566   0.000   5.125
 87        1.563   3.490   0.000   5.053
 88        1.557   3.465   0.000   5.022
 89        1.569   3.511   0.000   5.080
 90        1.573   3.587   0.000   5.160
 91        1.567   3.534   0.000   5.101
 92        1.566   3.508   0.000   5.074
 93        1.569   3.443   0.000   5.011
 94        1.580   3.571   0.000   5.152
tot       95.864 195.012 144.753 435.628