 vasp.5.4.1 05Feb16 (build Mar 19 2020 08:54:17) complex

 executed on           IFC91_ompi date 2021.11.11  21:24:44

 INCAR:
 POTCAR:    PAW_PBE Al 04Jan2001
 POTCAR:    PAW_PBE Nb_sv 25May2007
 POTCAR:    PAW_PBE Ta 17Jan2003
 POTCAR:    PAW_PBE Ti 08Apr2002
 POTCAR:   PAW_PBE Zr 08Apr2002

 POTCAR:    PAW_PBE Al 04Jan2001
   VRHFIN =Al: s2p1

   TITEL  = PAW_PBE Al 04Jan2001
   POMASS =   26.981; ZVAL   =    3.000    mass and valenz
   ENMAX  =  240.300; ENMIN  =  180.225 eV

 POTCAR:    PAW_PBE Nb_sv 25May2007
   VRHFIN =Nb: 4p5s4d

   TITEL  = PAW_PBE Nb_sv 25May2007
   POMASS =   92.910; ZVAL   =   13.000    mass and valenz
   ENMAX  =  293.235; ENMIN  =  219.927 eV

 POTCAR:    PAW_PBE Ta 17Jan2003
   VRHFIN =Ta:  6s5d

   TITEL  = PAW_PBE Ta 17Jan2003
   POMASS =  180.948; ZVAL   =    5.000    mass and valenz
   ENMAX  =  223.667; ENMIN  =  167.750 eV

 POTCAR:    PAW_PBE Ti 08Apr2002
   VRHFIN =Ti: d3 s1

   TITEL  = PAW_PBE Ti 08Apr2002
   POMASS =   47.880; ZVAL   =    4.000    mass and valenz
   ENMAX  =  178.330; ENMIN  =  133.747 eV

 POTCAR:   PAW_PBE Zr 08Apr2002
   VRHFIN =Zr: 5s4d5p

   TITEL  = PAW_PBE Zr 08Apr2002
   POMASS =   91.224; ZVAL   =    4.000    mass and valenz
   ENMAX  =  154.632; ENMIN  =  115.974 eV
   QCUT   =   -3.371; QGAM   =    6.742    optimization parameters

   Description
     l     E      TYP  RCUT    TYP  RCUT
     2   .000     23  3.000
     2   .000     23  3.000
     0   .000     23  3.000
     0  2.000     23  3.000
     1  -.400     23  3.000
     3   .000      7   .000

 Optimization of the real space projectors (new method)

 maximal supplied QI-value         = 19.84
 optimisation between [QCUT,QGAM] = [ 12.50, 25.00] = [ 43.76,175.03] Ry
 Optimized for a Real-space Cutoff    1.06 Angstroem

   l    n(q)    QCUT    max X(q) W(low)/X(q) W(high)/X(q)  e(spline)
   0      8    12.501   176.870    0.16E-03    0.12E-03    0.66E-07
   0      8    12.501   105.762    0.15E-03    0.12E-03    0.64E-07
   1      7    12.501    55.370    0.36E-03    0.38E-03    0.67E-07
   1      7    12.501    20.208    0.32E-03    0.35E-03    0.64E-07
 Optimization of the real space projectors (new method)

[...]

   l    n(q)    QCUT    max X(q) W(low)/X(q) W(high)/X(q)  e(spline)
   2     11    12.478    49.363    0.45E-03    0.34E-03    0.89E-06
   2     11    12.478    47.669    0.44E-03    0.33E-03    0.87E-06
   0     12    12.478    26.374    0.17E-03    0.37E-04    0.21E-05
   0     12    12.478    11.549    0.13E-03    0.31E-04    0.17E-05
   1     11    12.478     9.492    0.91E-05    0.64E-04    0.34E-06
 Optimization of the real space projectors (new method)

 maximal supplied QI-value         = 12.47
 optimisation between [QCUT,QGAM] = [ 12.47, 25.07] = [ 43.56,175.99] Ry
 Optimized for a Real-space Cutoff    1.70 Angstroem

   l    n(q)    QCUT    max X(q) W(low)/X(q) W(high)/X(q)  e(spline)
   2     12    12.472     5.149    0.23E-04    0.12E-05    0.19E-06
   2     12    12.472    48.417    0.26E-03    0.15E-03    0.35E-05
   0     13    12.472    27.113    0.15E-04    0.46E-05    0.14E-06
   0     13    12.472    33.957    0.20E-04    0.33E-04    0.12E-05
   1     12    12.472    13.771    0.11E-04    0.23E-05    0.34E-06
 WARNING: PSMAXN for non-local potential too small
          PSMAXN should be >   12.5490833729506       NTYP=           5
  PAW_PBE Al 04Jan2001                  :
  PAW_PBE Nb_sv 25May2007               :
  PAW_PBE Ta 17Jan2003                  :
  PAW_PBE Ti 08Apr2002                  :
 PAW_PBE Zr 08Apr2002                   :

 POSCAR: Al Nb Ta Ti Zr
  positions in direct lattice
  velocities in cartesian coordinates
 exchange correlation table for  LEXCH =        8
   RHO(1)=    0.500       N(1)  =     2000
   RHO(2)=  100.500       N(2)  =     4000

 ion  position               nearest neighbor table
   1  0.623  0.867  0.376-  34 2.83  25 2.88  24 2.88   9 2.88  13 2.90   4 2.91  61 2.93  15 3.16
                            41 3.35  17 3.40
   2  0.622  0.393  0.546-  31 2.78  23 2.79  26 2.79  33 2.80  14 2.81   7 2.89  10 2.92  62 2.98
                            18 3.15  17 3.17   3 3.18  16 3.19  42 3.35
   3  0.617  0.633  0.626-  14 2.81  26 2.85  23 2.88  32 2.88  33 2.90   8 2.90  27 3.02   2 3.18
                            45 3.19
   4  0.618  0.084  0.450-  31 2.80  24 2.86  34 2.87  13 2.88   1 2.91  25 2.92   7 2.92  10 2.93
                            62 2.97  12 3.16  28 3.16  46 3.24
   5  0.977  0.638  0.554-  27 2.74  30 2.80  42 2.92  56 2.95  59 3.01  52 3.02  54 3.06  63 3.07
                            58 3.13  47 3.14  57 3.35
   6  0.980  0.121  0.378-  29 2.80  28 2.80  53 2.91  41 2.96  51 3.05  55 3.05  60 3.08  57 3.37

   7  0.729  0.343  0.458-  28 2.77  29 2.83  31 2.85   2 2.89  17 2.89  11 2.90   4 2.92  62 3.03
                            63 3.07  42 3.07
   8  0.720  0.897  0.622-  30 2.66  12 2.71  32 2.75  18 2.76  27 2.89   3 2.90  64 3.03  62 3.19

   9  0.517  0.608  0.367-  35 2.84  15 2.85  17 2.87   1 2.88  11 2.89  61 2.95  43 3.10
  10  0.513  0.132  0.540-  18 2.70  36 2.78  16 2.84  12 2.86   2 2.92   4 2.93  46 2.94  31 2.95
                            62 3.05  44 3.14
  11  0.618  0.343  0.369-  24 2.75  34 2.83  31 2.87   9 2.89   7 2.90  61 2.96  43 3.27
  12  0.618  0.874  0.538-   8 2.71  13 2.73  32 2.74  25 2.81  23 2.82  10 2.86  33 2.89  62 2.91
                             4 3.16  44 3.35
  13  0.742  0.843  0.462-  12 2.73  17 2.87   4 2.88   1 2.90  30 2.93  28 2.94  23 2.95  63 2.98
                            41 3.05  57 3.27  62 3.45
  14  0.738  0.396  0.630-  27 2.75   3 2.81   2 2.81  18 2.90  42 2.95  64 2.96  58 3.17
  15  0.394  0.847  0.369-  22 2.68  19 2.76  25 2.83  34 2.84   9 2.85  39 2.98   1 3.16  46 3.43

  16  0.391  0.371  0.541-  21 2.65  20 2.66  26 2.83  10 2.84  37 2.84  33 2.85  31 2.87  40 3.06
                             2 3.19
  17  0.619  0.602  0.458-  33 2.81  25 2.81  23 2.81  31 2.85   9 2.87  13 2.87   7 2.89  61 2.95
                            35 3.03   2 3.17   1 3.40  63 3.44
  18  0.619  0.146  0.622-  10 2.70  32 2.73   8 2.76  26 2.81  62 2.81  14 2.90  36 3.11   2 3.15
                            64 3.31
  19  0.279  0.834  0.451-  15 2.76  35 2.94  46 2.96  39 2.97  25 2.99  44 3.02  60 3.07  51 3.08
                            47 3.12  56 3.20  21 3.34
  20  0.281  0.388  0.620-  16 2.66  45 2.84  36 2.85  21 2.98  59 2.98  52 2.99  48 3.04  26 3.04
                            40 3.18
  21  0.278  0.595  0.539-  16 2.65  45 2.90  59 2.94  35 2.96  52 2.97  44 2.97  20 2.98  47 3.03
                            37 3.03  33 3.06  56 3.11  19 3.34
  22  0.283  0.077  0.361-  15 2.68  46 2.97  43 2.97  34 2.99  51 3.02  55 3.10  60 3.10
  23  0.736  0.634  0.540-  27 2.69  30 2.77   2 2.79  17 2.81  12 2.82   3 2.88  63 2.95  13 2.95
                            42 3.02
  24  0.740  0.115  0.366-  29 2.73  11 2.75  28 2.85   4 2.86   1 2.88  41 3.00
  25  0.496  0.836  0.458-  35 2.78  12 2.81  17 2.81  15 2.83   1 2.88   4 2.92  19 2.99  46 2.99
                            44 3.02  33 3.02
  26  0.501  0.386  0.627-   2 2.79  36 2.80  18 2.81  16 2.83   3 2.85  45 2.94  20 3.04
  27  0.836  0.645  0.624-  23 2.69   5 2.74  14 2.75  58 2.78   8 2.89  30 2.91   3 3.02  54 3.18
                            42 3.38
  28  0.847  0.110  0.455-   7 2.77  62 2.80   6 2.80  24 2.85  57 2.90  13 2.94  53 2.98  29 3.15
                             4 3.16  50 3.27  41 3.36
  29  0.852  0.349  0.376-  24 2.73   6 2.80   7 2.83  53 2.94  61 2.98  49 3.07  28 3.15  63 3.25

  30  0.852  0.868  0.552-   8 2.66  23 2.77   5 2.80  54 2.88  27 2.91  13 2.93  57 2.98  62 2.99
                            50 3.06  64 3.42
  31  0.522  0.339  0.461-   2 2.78   4 2.80  17 2.85   7 2.85  35 2.86  16 2.87  11 2.87  46 2.95
                            10 2.95  43 3.11
  32  0.520  0.899  0.624-  18 2.73  12 2.74   8 2.75  36 2.88   3 2.88  44 2.89  45 3.07
  33  0.499  0.625  0.539-   2 2.80  17 2.81  35 2.82  16 2.85  12 2.89   3 2.90  45 2.91  44 2.92
                            25 3.02  21 3.06
  34  0.499  0.102  0.365-  11 2.83   1 2.83  15 2.84   4 2.87  43 2.91  46 2.98  22 2.99
  35  0.400  0.580  0.451-  25 2.78  33 2.82   9 2.84  31 2.86  37 2.88  39 2.93  19 2.94  21 2.96
                            17 3.03  43 3.08
  36  0.393  0.139  0.621-  10 2.78  26 2.80  20 2.85  40 2.85  32 2.88  38 3.03  18 3.11  44 3.26

  37  0.255  0.366  0.464-  16 2.84  35 2.88  47 3.02  21 3.03  60 3.04  43 3.05  52 3.06  55 3.08
                            46 3.08  40 3.25  39 3.39
  38  0.237  0.915  0.625-  56 2.82  44 2.89  59 2.96  40 2.96  36 3.03  48 3.09  54 3.28  45 3.31

  39  0.252  0.614  0.376-  35 2.93  19 2.97  15 2.98  47 3.07  43 3.07  51 3.07  55 3.08  37 3.39
                            49 3.53
  40  0.245  0.132  0.549-  36 2.85  38 2.96  48 3.02  16 3.06  60 3.06  52 3.06  44 3.08  56 3.16
                            20 3.18  46 3.23  37 3.25  50 3.45
  41  0.865  0.859  0.370-   6 2.96  24 3.00  61 3.05  13 3.05  57 3.06  49 3.12   1 3.35  28 3.36
                            51 3.49  63 3.53
  42  0.865  0.380  0.545-   5 2.92  14 2.95  62 3.01  23 3.02  58 3.02   7 3.07  50 3.12  63 3.14
                            53 3.18  64 3.34   2 3.35  27 3.38  52 3.45
  43  0.381  0.352  0.373-  34 2.91  22 2.97  37 3.05  39 3.07  35 3.08   9 3.10  31 3.11  55 3.26
                            11 3.27  46 3.29
  44  0.375  0.871  0.548-  38 2.89  32 2.89  33 2.92  21 2.97  25 3.02  19 3.02  40 3.08  45 3.09
                            10 3.14  36 3.26  56 3.35  12 3.35  46 3.39
  45  0.385  0.644  0.628-  20 2.84  21 2.90  33 2.91  26 2.94  32 3.07  44 3.09   3 3.19  59 3.28
                            38 3.31
  46  0.384  0.104  0.456-  10 2.94  31 2.95  19 2.96  22 2.97  34 2.98  25 2.99  37 3.08  40 3.23
                             4 3.24  60 3.27  43 3.29  44 3.39  15 3.43
  47  0.117  0.611  0.465-  37 3.02  21 3.03  39 3.07  56 3.08  19 3.12   5 3.14  52 3.14  53 3.14
                            49 3.15  57 3.17  63 3.42  51 3.52  55 3.80
  48  0.114  0.184  0.635-  50 3.01  40 3.02  20 3.04  52 3.09  38 3.09  58 3.10  54 3.32  64 3.55

  49  0.996  0.593  0.368-  63 3.05  29 3.07  41 3.12  47 3.15  51 3.16  55 3.23  53 3.44  39 3.53
                            61 3.65  57 3.82
  50  0.994  0.112  0.547-  48 3.01  64 3.03  30 3.06  54 3.11  42 3.12  52 3.16  56 3.20  57 3.21
                            28 3.27  53 3.34  60 3.40  40 3.45  62 3.59
  51  0.119  0.872  0.375-  60 3.00  22 3.02   6 3.05  39 3.07  19 3.08  57 3.16  49 3.16  41 3.49
                            47 3.52
  52  0.116  0.393  0.550-  21 2.97  20 2.99   5 3.02  37 3.06  40 3.06  48 3.09  59 3.09  47 3.14
                            50 3.16  53 3.17  58 3.28  42 3.45
  53  1.000  0.331  0.453-   6 2.91  29 2.94  28 2.98  60 3.06  63 3.08  55 3.09  47 3.14  52 3.17
                            42 3.18  50 3.34  49 3.44
  54  0.000  0.879  0.626-  30 2.88  56 3.00   5 3.06  59 3.10  50 3.11  64 3.18  27 3.18  38 3.28
                            48 3.32
  55  0.145  0.332  0.368-   6 3.05  37 3.08  39 3.08  53 3.09  22 3.10  49 3.23  60 3.24  43 3.26
[...]
     58      -3.7973      2.00000
     59      -3.7416      2.00000
     60      -3.6896      2.00000
[...]
    194      -0.2585      0.00000
    195      -0.2526      0.00000
    196      -0.2319      0.00000
    197      -0.2132      0.00000
    198      -0.1897      0.00000
    199      -0.1674      0.00000
    200      -0.1418      0.00000
    201      -0.1118      0.00000
    202      -0.1003      0.00000
    203      -0.0791      0.00000
    204      -0.0475      0.00000
    205      -0.0182      0.00000
    206       0.0197      0.00000
    207       0.0470      0.00000
    208       0.1403      0.00000

 soft charge-density along one line, spin component           1
         0         1         2         3         4         5         6         7         8         9
 total charge-density along one line

------------------------ aborting loop because EDIFF is reached ----------------------------------------

  FORCE on cell =-STRESS in cart. coord.  units (eV):
  Direction    XX          YY          ZZ          XY          YZ          ZX
  Alpha Z   507.55867   507.55867   507.55867
  Ewald   75656.71971 81071.63263-86720.53804  -813.03049    44.12397   727.52077
  Hartree 80029.53756 85193.58108-76657.20952  -643.32006    20.87553   689.31737
  E(xc)   -1438.86626 -1441.81781 -1430.66222    -0.41232    -0.58557    -0.24206
  Local  ************************159837.05774  1454.99477   -62.79351 -1416.28228
  n-local   -22.96188   -26.06992   -54.39502     8.14058    -1.32789     1.04126
  augment   436.72449   437.44050   432.62219    -0.96236     0.39378     0.05760
  Kinetic  4065.32889  4054.23054  4068.66384    -7.30705     5.28362    -2.61297
  Fock        0.00000     0.00000     0.00000     0.00000     0.00000     0.00000
  Total     -38.76069   -34.10710   -16.90236    -1.89693     5.96992    -1.20031
  in kB     -17.04400   -14.99771    -7.43237    -0.83412     2.62512    -0.52780

 VOLUME and BASIS-vectors are now :
  energy-cutoff  :      600.00
  volume of cell :     3643.60
      direct lattice vectors                 reciprocal lattice vectors
    13.771350861  0.000000000  0.000000000     0.072614518  0.000000000  0.000000000
     0.000000000  9.564481735  0.000000000     0.000000000  0.104553496  0.000000000
     0.000000000  0.000000000 27.662570434     0.000000000  0.000000000  0.036149931

  length of vectors
    13.771350861  9.564481735 27.662570434     0.072614518  0.104553496  0.036149931

 FORCES acting on ions
    electron-ion (+dipol)            ewald-force                    non-local-force                 convergence-correction
   -.466E+02 -.339E+02 0.369E+03   0.464E+02 0.336E+02 -.368E+03   0.927E-01 0.881E-01 -.809E+00   0.806E-03 0.389E-03 0.664E-03
   -.162E+02 -.336E+02 -.146E+03   0.161E+02 0.337E+02 0.146E+03   0.520E-01 -.121E+00 0.217E+00   0.493E-03 0.639E-03 0.126E-03
   0.408E+02 0.122E+02 -.376E+03   -.405E+02 -.126E+02 0.375E+03   -.337E+00 0.678E+00 0.877E+00   0.139E-02 0.123E-03 -.285E-03
   0.240E+01 0.595E+01 0.181E+03   -.244E+01 -.581E+01 -.181E+03   0.867E-02 -.289E+00 -.742E+00   0.336E-03 0.776E-04 0.110E-03
   -.658E+02 0.545E+01 -.130E+03   0.654E+02 -.521E+01 0.131E+03   0.422E+00 -.245E+00 -.132E+01   -.234E-03 -.612E-04 0.483E-03
   -.467E+02 0.478E+01 0.311E+03   0.461E+02 -.421E+01 -.309E+03   0.670E+00 -.989E+00 -.229E+01   0.201E-03 -.115E-02 0.317E-03
   -.378E+03 -.714E+01 0.389E+03   0.378E+03 0.785E+01 -.391E+03   0.956E-01 -.346E+00 0.910E+00   -.111E-02 0.497E-02 0.161E-02
   -.276E+03 0.359E+02 -.168E+04   0.275E+03 -.348E+02 0.168E+04   0.126E+01 -.111E+01 0.430E+01   0.472E-02 -.384E-02 0.943E-03
   0.103E+03 -.101E+02 0.158E+04   -.102E+03 0.896E+01 -.158E+04   -.561E+00 0.607E+00 -.429E+01   -.779E-04 0.196E-02 0.602E-02
   0.232E+03 0.724E+01 -.481E+03   -.232E+03 -.732E+01 0.482E+03   0.624E-01 0.128E+00 -.132E+01   -.732E-03 0.451E-04 -.131E-02
   -.534E+02 0.138E+03 0.165E+04   0.542E+02 -.137E+03 -.165E+04   -.515E+00 -.402E+00 -.279E+01   0.592E-02 -.263E-02 0.417E-02
   0.115E+03 0.133E+03 -.468E+03   -.115E+03 -.133E+03 0.468E+03   -.596E+00 0.204E-01 -.269E+00   0.319E-02 -.281E-02 0.283E-02
   -.415E+03 0.120E+01 0.654E+03   0.416E+03 -.230E+01 -.653E+03   -.744E+00 0.140E+01 -.153E+01   0.773E-03 -.506E-02 0.101E-02
   -.167E+03 -.239E+02 -.154E+04   0.168E+03 0.234E+02 0.154E+04   -.115E+01 0.121E+00 0.337E+01   0.484E-02 0.390E-02 0.788E-03
   0.299E+03 -.116E+03 0.148E+04   -.299E+03 0.116E+03 -.148E+04   0.256E+00 -.382E+00 -.415E+01   -.605E-02 0.307E-02 0.407E-02
   0.367E+03 -.104E+03 -.500E+03   -.367E+03 0.104E+03 0.501E+03   0.211E+00 0.113E+00 -.642E+00   -.204E-02 0.278E-02 -.199E-02
   -.121E+02 0.869E+00 0.155E+03   0.116E+02 -.807E+00 -.155E+03   0.572E+00 -.214E+00 0.118E+00   0.130E-02 -.436E-03 0.161E-02
   0.122E+02 -.405E+02 -.664E+03   -.126E+02 0.404E+02 0.661E+03   0.450E+00 0.355E+00 0.235E+01   0.230E-02 -.141E-03 0.249E-03
   0.171E+03 -.715E+01 0.135E+03   -.170E+03 0.694E+01 -.136E+03   -.117E+01 0.544E+00 0.741E+00   -.101E-02 -.602E-04 0.534E-03
   0.134E+03 -.107E+02 -.599E+03   -.133E+03 0.108E+02 0.596E+03   -.777E+00 -.636E-01 0.315E+01   0.871E-04 0.197E-02 -.205E-02
   0.125E+03 -.617E+02 -.146E+03   -.125E+03 0.614E+02 0.146E+03   -.217E+00 0.274E+00 0.101E+00   -.335E-03 0.175E-03 -.616E-03
   0.117E+03 -.550E+02 0.455E+03   -.116E+03 0.551E+02 -.452E+03   -.827E+00 -.221E+00 -.268E+01   -.177E-03 -.188E-02 0.177E-02
   -.102E+03 0.640E+02 -.165E+03   0.102E+03 -.636E+02 0.165E+03   0.143E+00 -.413E+00 0.606E+00   0.740E-03 0.138E-04 0.124E-02
   -.100E+03 0.599E+02 0.509E+03   0.996E+02 -.594E+02 -.506E+03   0.448E+00 -.492E+00 -.275E+01   -.129E-03 -.422E-03 0.232E-03
   0.833E+02 -.128E+02 0.138E+03   -.842E+02 0.123E+02 -.138E+03   0.819E+00 0.820E+00 -.352E+00   -.787E-03 -.373E-03 0.768E-03
   0.450E+02 -.371E+02 -.537E+03   -.455E+02 0.368E+02 0.534E+03   0.238E+00 0.271E-01 0.234E+01   0.783E-03 0.114E-02 -.767E-03
   -.130E+03 -.541E+01 -.448E+03   0.130E+03 0.542E+01 0.446E+03   0.181E+00 -.285E-01 0.230E+01   -.630E-04 0.374E-04 0.931E-04
   -.166E+03 0.724E+01 0.169E+03   0.165E+03 -.704E+01 -.170E+03   0.433E+00 -.392E+00 0.280E+00   -.175E-03 -.118E-03 0.928E-04
   -.150E+03 -.557E+01 0.465E+03   0.150E+03 0.554E+01 -.461E+03   0.642E+00 -.705E-01 -.260E+01   -.800E-03 0.181E-03 0.102E-02
   -.199E+03 -.148E+01 -.179E+03   0.198E+03 0.166E+01 0.179E+03   0.673E+00 -.208E+00 0.282E+00   0.843E-05 -.127E-02 0.173E-02
   0.819E+02 0.151E+01 0.152E+03   -.822E+02 -.107E+01 -.153E+03   0.295E-01 -.116E+00 -.388E-01   0.686E-04 0.669E-03 0.115E-02
   0.136E+03 0.394E+02 -.543E+03   -.136E+03 -.390E+02 0.540E+03   -.792E+00 -.463E+00 0.253E+01   0.139E-02 -.104E-02 -.740E-03
   0.708E+02 -.546E+01 -.185E+03   -.712E+02 0.556E+01 0.184E+03   0.383E+00 -.898E-01 0.679E+00   -.258E-03 -.252E-03 0.478E-04
   0.362E+02 -.666E+00 0.488E+03   -.368E+02 0.604E+00 -.485E+03   0.602E+00 0.280E-01 -.250E+01   -.886E-05 -.819E-03 0.106E-02
   0.132E+03 0.559E+01 0.138E+03   -.131E+03 -.588E+01 -.138E+03   -.745E+00 0.658E+00 -.412E+00   -.107E-02 0.255E-03 0.182E-02
   0.117E+03 0.361E+02 -.515E+03   -.116E+03 -.357E+02 0.513E+03   -.728E+00 -.352E+00 0.240E+01   0.253E-03 0.169E-03 -.996E-03
   0.128E+03 0.905E+01 0.159E+03   -.128E+03 -.869E+01 -.159E+03   -.148E-01 -.391E+00 -.500E+00   0.397E-04 0.470E-03 0.169E-02
   0.493E+02 0.767E+01 -.436E+03   -.498E+02 -.779E+01 0.433E+03   0.529E+00 0.137E+00 0.216E+01   -.630E-03 -.148E-02 -.138E-02
   0.126E+03 0.388E+02 0.411E+03   -.126E+03 -.386E+02 -.408E+03   0.173E+00 -.488E+00 -.285E+01   -.391E-03 0.174E-02 0.211E-02
   0.122E+03 0.379E+02 -.170E+03   -.122E+03 -.375E+02 0.171E+03   -.151E+00 -.385E+00 -.675E+00   -.233E-03 -.145E-04 -.155E-02
   -.993E+02 -.109E+01 0.473E+03   0.996E+02 0.107E+01 -.469E+03   -.475E+00 0.396E-01 -.308E+01   0.544E-03 -.365E-03 0.880E-03
   -.151E+03 0.584E+00 -.149E+03   0.150E+03 -.613E+00 0.150E+03   0.289E+00 0.615E-01 -.431E+00   0.100E-03 0.113E-02 0.109E-02
   0.131E+03 0.286E+02 0.440E+03   -.130E+03 -.289E+02 -.437E+03   -.211E+00 0.331E+00 -.251E+01   -.376E-03 -.284E-03 0.172E-02
   0.144E+03 0.249E+02 -.201E+03   -.143E+03 -.246E+02 0.200E+03   -.547E+00 -.328E+00 0.272E+00   -.775E-03 -.946E-03 -.729E-03
   0.702E+02 -.315E+02 -.486E+03   -.708E+02 0.310E+02 0.483E+03   0.702E+00 0.502E+00 0.355E+01   -.154E-03 -.146E-03 -.127E-02
   0.130E+03 -.156E+01 0.176E+03   -.130E+03 0.138E+01 -.176E+03   0.306E+00 0.278E-01 0.126E+00   -.133E-02 -.414E-03 0.690E-03
   0.337E+02 0.111E+01 0.117E+03   -.335E+02 -.109E+01 -.118E+03   -.136E+00 -.110E+00 0.292E+00   -.150E-03 0.725E-03 0.105E-02
   0.843E+01 0.938E+01 -.439E+03   -.864E+01 -.937E+01 0.435E+03   0.189E+00 -.683E-02 0.336E+01   -.131E-02 0.101E-03 -.111E-02
   -.418E+02 -.384E+00 0.426E+03   0.421E+02 0.715E+00 -.423E+03   -.268E-01 -.261E+00 -.275E+01   -.273E-03 0.175E-02 0.192E-02
   -.724E+02 -.531E+01 -.155E+03   0.723E+02 0.495E+01 0.155E+03   0.579E-01 0.370E+00 -.296E-01   0.858E-04 -.212E-03 0.655E-03
   0.505E+02 -.303E+01 0.404E+03   -.505E+02 0.240E+01 -.401E+03   -.138E-01 0.155E+00 -.313E+01   -.105E-03 -.322E-03 0.166E-02
   0.433E+02 0.937E+00 -.163E+03   -.430E+02 -.118E+01 0.163E+03   -.292E+00 0.223E+00 -.628E+00   -.329E-03 0.109E-02 -.696E-03
   -.722E+02 -.213E+01 0.154E+03   0.723E+02 0.236E+01 -.154E+03   0.656E-01 0.710E-01 0.587E-01   0.633E-03 0.124E-02 0.146E-02
   -.668E+02 -.169E+00 -.423E+03   0.671E+02 0.484E+00 0.420E+03   -.332E+00 -.330E+00 0.299E+01   -.128E-02 -.108E-02 -.769E-03
   0.399E+02 0.120E+01 0.421E+03   -.392E+02 -.108E+01 -.417E+03   -.824E+00 -.275E+00 -.316E+01   -.158E-03 -.302E-03 0.178E-02
   0.231E+02 -.453E+01 -.138E+03   -.225E+02 0.461E+01 0.139E+03   -.613E+00 -.677E-01 -.502E+00   -.245E-03 -.938E-03 -.642E-03
   -.975E+02 0.313E+00 0.124E+03   0.970E+02 -.479E+00 -.125E+03   0.410E+00 0.210E+00 0.126E+00   0.112E-02 -.159E-02 0.472E-04
   -.940E+02 -.242E+01 -.453E+03   0.931E+02 0.188E+01 0.450E+03   0.838E+00 0.565E+00 0.363E+01   -.172E-02 0.130E-02 -.113E-02
   0.258E+02 -.962E+01 -.414E+03   -.251E+02 0.957E+01 0.412E+03   -.736E+00 0.361E-01 0.258E+01   -.734E-03 0.220E-03 -.130E-02
   0.489E+02 -.512E+01 0.156E+03   -.483E+02 0.493E+01 -.156E+03   -.586E+00 0.595E+00 0.113E+00   0.541E-03 -.107E-02 0.649E-03
   -.141E+03 -.431E+02 0.504E+03   0.140E+03 0.424E+02 -.501E+03   0.818E+00 0.337E-01 -.326E+01   0.966E-03 0.418E-03 0.170E-02
   -.145E+03 -.441E+02 -.145E+03   0.145E+03 0.436E+02 0.146E+03   0.291E+00 0.572E+00 -.750E+00   0.103E-03 0.147E-03 0.138E-02
   -.159E+03 0.395E+01 0.153E+03   0.158E+03 -.404E+01 -.154E+03   0.724E+00 0.500E+00 0.350E+00   0.327E-03 0.462E-03 0.797E-03
   -.131E+03 0.386E+01 -.461E+03   0.130E+03 -.327E+01 0.458E+03   0.367E+00 -.484E+00 0.324E+01   -.555E-03 -.960E-04 -.267E-03
   -.416E+00 -.174E+00 0.527E+01   0.284E-13 0.902E-13 0.114E-11   0.394E+00 0.147E+00 -.533E+01   0.826E-02 0.171E-02 0.383E-01

 POSITION                                       TOTAL-FORCE (eV/Angst)
      8.57631      8.29685     10.39845        -0.098021     -0.153945      0.015590
      8.56750      3.75734     15.11701         0.002111     -0.073150      0.089522
      8.49631      6.05333     17.31467        -0.034240      0.321412     -0.023121
      8.51616      0.79995     12.43874        -0.031284     -0.145959     -0.245930
     13.45539      6.09750     15.32276         0.043610     -0.004535     -0.029074
     13.49094      1.15316     10.44749        -0.012200     -0.412322     -0.052366
     10.03344      3.28428     12.67411        -0.003921      0.376086     -0.544764
      9.90990      8.58080     17.19780         0.208729     -0.018546     -0.045020
      7.12524      5.81577     10.15765        -0.169932     -0.492467      0.869220
      7.06498      1.26158     14.93906        -0.108151      0.051412     -0.090444
      8.51222      3.28036     10.20450         0.257878      0.099863      0.694865
      8.50933      8.36321     14.88466         0.011071     -0.059887      0.069063
     10.22263      8.06723     12.77991         0.300383      0.291764     -0.447026
     10.15698      3.79167     17.43460         0.490064     -0.420038     -0.329215
      5.42664      8.10481     10.20639         0.317647      0.056664      0.950158
      5.38847      3.54791     14.96874         0.251998      0.017865      0.239819
      8.52843      5.75423     12.65640         0.122710     -0.151990     -0.058703
      8.52298      1.40023     17.21314         0.066229      0.296372      0.242881
      3.84829      7.97317     12.47259        -0.362562      0.337521     -0.343403
      3.86632      3.71558     17.14825         0.050129      0.016923     -0.013208
      3.82514      5.68954     14.91163        -0.029442     -0.019039     -0.040969
      3.90063      0.73891     10.00000         0.483941     -0.137678      0.351371
     10.13264      6.06113     14.94701         0.024741      0.034328     -0.024761
     10.19112      1.10470     10.13736        -0.216164      0.042994      0.394451
      6.82945      7.99424     12.66670        -0.077562      0.243581     -0.344903
      6.90347      3.69055     17.35749        -0.346962     -0.252722     -0.354521
     11.51035      6.17347     17.25517        -0.124941     -0.016927      0.079639
     11.66772      1.05372     12.57547        -0.049932     -0.195668     -0.671874
     11.73919      3.33868     10.41199        -0.301644     -0.095140      0.554503
     11.73079      8.30294     15.28165        -0.047410     -0.031060      0.049344
      7.18522      3.24644     12.75390        -0.223933      0.326015     -0.478200
      7.15802      8.60079     17.25102        -0.183795     -0.063364     -0.055016
      6.87631      5.97687     14.91486        -0.027981      0.011835      0.007760
      6.87795      0.97560     10.08695        -0.060886     -0.034937      0.173161
      5.51084      5.55012     12.48419        -0.052578      0.373971     -0.278552
      5.41813      1.32522     17.17190         0.086808      0.085578     -0.026307
      3.51249      3.50019     12.83519        -0.133447     -0.029932     -0.580752
      3.26479      8.75552     17.29368         0.020685      0.017987     -0.013710
      3.46798      5.87237     10.40868         0.078839     -0.214209     -0.099918
      3.36904      1.26541     15.18572         0.020568     -0.000715      0.019475
     11.91771      8.21633     10.24534        -0.168145      0.025278      0.683289
     11.91561      3.63277     15.07033        -0.260772      0.033534      0.224459
      5.24135      3.36543     10.32679         0.205528      0.069850      0.112161
      5.16819      8.32983     15.16726         0.019808      0.002308      0.009074
      5.30607      6.15561     17.36090         0.089681     -0.031454      0.081866
      5.28930      0.99064     12.60849         0.121298     -0.150007     -0.326018
      1.60538      5.84491     12.85122         0.068139     -0.096172     -0.490107
      1.57133      1.76366     17.56049        -0.023080      0.006967      0.022083
     13.72038      5.67134     10.18293         0.208096      0.072121      0.664785
     13.69499      1.07508     15.13511        -0.007420      0.013133     -0.003850
      1.63456      8.33987     10.36453        -0.029809     -0.475468      0.163007
      1.59415      3.75676     15.20100         0.017354     -0.018231     -0.010193
     13.76831      3.16119     12.53308         0.125325      0.307349     -0.365050
      0.00402      8.40976     17.30595        -0.000117     -0.015413     -0.015590
      1.99440      3.17314     10.17666        -0.127305     -0.158898      0.686801
      1.83492      8.08252     14.95570         0.007528      0.013771      0.008477
     13.48051      8.37930     12.86886        -0.078203      0.043595     -0.429324
     13.29911      4.09359     17.72005        -0.076730      0.027563     -0.037483
      2.03110      6.06828     17.20649        -0.045148     -0.008982      0.034003
      2.02729      0.87737     12.46815        -0.013016      0.410173     -0.356557
     10.07171      5.79402     10.14663         0.128277     -0.624243      0.180504
     10.11892      1.22533     14.90208         0.065015      0.055750     -0.037898
     11.97051      5.66181     12.67660        -0.233343      0.411450     -0.393154
     11.81975      1.34578     17.49884        -0.134115      0.108082     -0.014351
    total drift:                               -0.014264     -0.025180     -0.012452

  FREE ENERGIE OF THE ION-ELECTRON SYSTEM (eV)
  free  energy   TOTEN  =      -504.59991685 eV

  energy  without entropy=     -504.59828784  energy(sigma->0) =     -504.59950960